# vtk DataFile Version 3.0
mesh
ASCII
DATASET UNSTRUCTURED_GRID
POINTS 0 float
CELLS 0 0
CELL_TYPES 0
CELL_DATA 0
SCALARS von_mises float 1
LOOKUP_TABLE default
