# vtk DataFile Version 3.0
mesh
ASCII
DATASET UNSTRUCTURED_GRID
POINTS 315 float
45 0 0
-50 0 0
-50 0 10
45 0 10
-50 -10 0
-50 -10 10
45 -10 10
45 -10 0
45 10 0
-50 10 0
-50 10 10
45 10 10
50 0 10
50 -10 10
50 -10 0
50 0 0
50 10 10
50 10 0
40 0 0
35 0 0
30 0 0
25 0 0
20 0 0
15 0 0
10 0 0
5 0 0
0 0 0
-5 0 0
-10 0 0
-15 0 0
-20 0 0
-25 0 0
-30 0 0
-35 0 0
-40 0 0
-45 0 0
-50 0 5
-45 0 10
-40 0 10
-35 0 10
-30 0 10
-25 0 10
-20 0 10
-15 0 10
-10 0 10
-5 0 10
0 0 10
5 0 10
10 0 10
15 0 10
20 0 10
25 0 10
30 0 10
35 0 10
40 0 10
45 0 5
-45 -10 0
-40 -10 0
-35 -10 0
-30 -10 0
-25 -10 0
-20 -10 0
-15 -10 0
-10 -10 0
-5 -10 0
0 -10 0
5 -10 0
10 -10 0
15 -10 0
20 -10 0
25 -10 0
30 -10 0
35 -10 0
40 -10 0
-50 -10 5
40 -10 10
35 -10 10
30 -10 10
25 -10 10
20 -10 10
15 -10 10
10 -10 10
5 -10 10
0 -10 10
-5 -10 10
-10 -10 10
-15 -10 10
-20 -10 10
-25 -10 10
-30 -10 10
-35 -10 10
-40 -10 10
-45 -10 10
45 -10 5
45 -5 10
45 -5 0
-50 -5 10
-50 -5 0
40 10 0
35 10 0
30 10 0
25 10 0
20 10 0
15 10 0
10 10 0
5 10 0
0 10 0
-5 10 0
-10 10 0
-15 10 0
-20 10 0
-25 10 0
-30 10 0
-35 10 0
-40 10 0
-45 10 0
-50 10 5
-45 10 10
-40 10 10
-35 10 10
-30 10 10
-25 10 10
-20 10 10
-15 10 10
-10 10 10
-5 10 10
0 10 10
5 10 10
10 10 10
15 10 10
20 10 10
25 10 10
30 10 10
35 10 10
40 10 10
45 10 5
45 5 10
45 5 0
-50 5 10
-50 5 0
50 -5 10
50 -5 0
50 -10 5
50 0 5
50 10 5
50 5 0
50 5 10
40 0 5
35 0 5
30 0 5
25 0 5
20 0 5
15 0 5
10 0 5
5 0 5
0 0 5
-5 0 5
-10 0 5
-15 0 5
-20 0 5
-25 0 5
-30 0 5
-35 0 5
-40 0 5
-45 0 5
40 -10 5
35 -10 5
30 -10 5
25 -10 5
20 -10 5
15 -10 5
10 -10 5
5 -10 5
0 -10 5
-5 -10 5
-10 -10 5
-15 -10 5
-20 -10 5
-25 -10 5
-30 -10 5
-35 -10 5
-40 -10 5
-45 -10 5
45 -5 5
-50 -5 5
40 -5 0
35 -5 0
30 -5 0
25 -5 0
20 -5 0
15 -5 0
10 -5 0
5 -5 0
0 -5 0
-5 -5 0
-10 -5 0
-15 -5 0
-20 -5 0
-25 -5 0
-30 -5 0
-35 -5 0
-40 -5 0
-45 -5 0
40 -5 10
35 -5 10
30 -5 10
25 -5 10
20 -5 10
15 -5 10
10 -5 10
5 -5 10
0 -5 10
-5 -5 10
-10 -5 10
-15 -5 10
-20 -5 10
-25 -5 10
-30 -5 10
-35 -5 10
-40 -5 10
-45 -5 10
40 10 5
35 10 5
30 10 5
25 10 5
20 10 5
15 10 5
10 10 5
5 10 5
0 10 5
-5 10 5
-10 10 5
-15 10 5
-20 10 5
-25 10 5
-30 10 5
-35 10 5
-40 10 5
-45 10 5
45 5 5
-50 5 5
40 5 0
35 5 0
30 5 0
25 5 0
20 5 0
15 5 0
10 5 0
5 5 0
0 5 0
-5 5 0
-10 5 0
-15 5 0
-20 5 0
-25 5 0
-30 5 0
-35 5 0
-40 5 0
-45 5 0
40 5 10
35 5 10
30 5 10
25 5 10
20 5 10
15 5 10
10 5 10
5 5 10
0 5 10
-5 5 10
-10 5 10
-15 5 10
-20 5 10
-25 5 10
-30 5 10
-35 5 10
-40 5 10
-45 5 10
50 -5 5
50 5 5
40 -5 5
35 -5 5
30 -5 5
25 -5 5
20 -5 5
15 -5 5
10 -5 5
5 -5 5
0 -5 5
-5 -5 5
-10 -5 5
-15 -5 5
-20 -5 5
-25 -5 5
-30 -5 5
-35 -5 5
-40 -5 5
-45 -5 5
40 5 5
35 5 5
30 5 5
25 5 5
20 5 5
15 5 5
10 5 5
5 5 5
0 5 5
-5 5 5
-10 5 5
-15 5 5
-20 5 5
-25 5 5
-30 5 5
-35 5 5
-40 5 5
-45 5 5
CELLS 160 1440
8 95 185 279 183 0 18 147 55
8 185 186 280 279 18 19 148 147
8 186 187 281 280 19 20 149 148
8 187 188 282 281 20 21 150 149
8 188 189 283 282 21 22 151 150
8 189 190 284 283 22 23 152 151
8 190 191 285 284 23 24 153 152
8 191 192 286 285 24 25 154 153
8 192 193 287 286 25 26 155 154
8 193 194 288 287 26 27 156 155
8 194 195 289 288 27 28 157 156
8 195 196 290 289 28 29 158 157
8 196 197 291 290 29 30 159 158
8 197 198 292 291 30 31 160 159
8 198 199 293 292 31 32 161 160
8 199 200 294 293 32 33 162 161
8 200 201 295 294 33 34 163 162
8 201 202 296 295 34 35 164 163
8 202 97 184 296 35 1 36 164
8 183 279 203 94 55 147 54 3
8 279 280 204 203 147 148 53 54
8 280 281 205 204 148 149 52 53
8 281 282 206 205 149 150 51 52
8 282 283 207 206 150 151 50 51
8 283 284 208 207 151 152 49 50
8 284 285 209 208 152 153 48 49
8 285 286 210 209 153 154 47 48
8 286 287 211 210 154 155 46 47
8 287 288 212 211 155 156 45 46
8 288 289 213 212 156 157 44 45
8 289 290 214 213 157 158 43 44
8 290 291 215 214 158 159 42 43
8 291 292 216 215 159 160 41 42
8 292 293 217 216 160 161 40 41
8 293 294 218 217 161 162 39 40
8 294 295 219 218 162 163 38 39
8 295 296 220 219 163 164 37 38
8 296 184 96 220 164 36 2 37
8 7 73 165 93 95 185 279 183
8 73 72 166 165 185 186 280 279
8 72 71 167 166 186 187 281 280
8 71 70 168 167 187 188 282 281
8 70 69 169 168 188 189 283 282
8 69 68 170 169 189 190 284 283
8 68 67 171 170 190 191 285 284
8 67 66 172 171 191 192 286 285
8 66 65 173 172 192 193 287 286
8 65 64 174 173 193 194 288 287
8 64 63 175 174 194 195 289 288
8 63 62 176 175 195 196 290 289
8 62 61 177 176 196 197 291 290
8 61 60 178 177 197 198 292 291
8 60 59 179 178 198 199 293 292
8 59 58 180 179 199 200 294 293
8 58 57 181 180 200 201 295 294
8 57 56 182 181 201 202 296 295
8 56 4 74 182 202 97 184 296
8 93 165 75 6 183 279 203 94
8 165 166 76 75 279 280 204 203
8 166 167 77 76 280 281 205 204
8 167 168 78 77 281 282 206 205
8 168 169 79 78 282 283 207 206
8 169 170 80 79 283 284 208 207
8 170 171 81 80 284 285 209 208
8 171 172 82 81 285 286 210 209
8 172 173 83 82 286 287 211 210
8 173 174 84 83 287 288 212 211
8 174 175 85 84 288 289 213 212
8 175 176 86 85 289 290 214 213
8 176 177 87 86 290 291 215 214
8 177 178 88 87 291 292 216 215
8 178 179 89 88 292 293 217 216
8 179 180 90 89 293 294 218 217
8 180 181 91 90 294 295 219 218
8 181 182 92 91 295 296 220 219
8 182 74 5 92 296 184 96 220
8 0 18 147 55 137 241 297 239
8 18 19 148 147 241 242 298 297
8 19 20 149 148 242 243 299 298
8 20 21 150 149 243 244 300 299
8 21 22 151 150 244 245 301 300
8 22 23 152 151 245 246 302 301
8 23 24 153 152 246 247 303 302
8 24 25 154 153 247 248 304 303
8 25 26 155 154 248 249 305 304
8 26 27 156 155 249 250 306 305
8 27 28 157 156 250 251 307 306
8 28 29 158 157 251 252 308 307
8 29 30 159 158 252 253 309 308
8 30 31 160 159 253 254 310 309
8 31 32 161 160 254 255 311 310
8 32 33 162 161 255 256 312 311
8 33 34 163 162 256 257 313 312
8 34 35 164 163 257 258 314 313
8 35 1 36 164 258 139 240 314
8 55 147 54 3 239 297 259 136
8 147 148 53 54 297 298 260 259
8 148 149 52 53 298 299 261 260
8 149 150 51 52 299 300 262 261
8 150 151 50 51 300 301 263 262
8 151 152 49 50 301 302 264 263
8 152 153 48 49 302 303 265 264
8 153 154 47 48 303 304 266 265
8 154 155 46 47 304 305 267 266
8 155 156 45 46 305 306 268 267
8 156 157 44 45 306 307 269 268
8 157 158 43 44 307 308 270 269
8 158 159 42 43 308 309 271 270
8 159 160 41 42 309 310 272 271
8 160 161 40 41 310 311 273 272
8 161 162 39 40 311 312 274 273
8 162 163 38 39 312 313 275 274
8 163 164 37 38 313 314 276 275
8 164 36 2 37 314 240 138 276
8 137 241 297 239 8 98 221 135
8 241 242 298 297 98 99 222 221
8 242 243 299 298 99 100 223 222
8 243 244 300 299 100 101 224 223
8 244 245 301 300 101 102 225 224
8 245 246 302 301 102 103 226 225
8 246 247 303 302 103 104 227 226
8 247 248 304 303 104 105 228 227
8 248 249 305 304 105 106 229 228
8 249 250 306 305 106 107 230 229
8 250 251 307 306 107 108 231 230
8 251 252 308 307 108 109 232 231
8 252 253 309 308 109 110 233 232
8 253 254 310 309 110 111 234 233
8 254 255 311 310 111 112 235 234
8 255 256 312 311 112 113 236 235
8 256 257 313 312 113 114 237 236
8 257 258 314 313 114 115 238 237
8 258 139 240 314 115 9 116 238
8 239 297 259 136 135 221 134 11
8 297 298 260 259 221 222 133 134
8 298 299 261 260 222 223 132 133
8 299 300 262 261 223 224 131 132
8 300 301 263 262 224 225 130 131
8 301 302 264 263 225 226 129 130
8 302 303 265 264 226 227 128 129
8 303 304 266 265 227 228 127 128
8 304 305 267 266 228 229 126 127
8 305 306 268 267 229 230 125 126
8 306 307 269 268 230 231 124 125
8 307 308 270 269 231 232 123 124
8 308 309 271 270 232 233 122 123
8 309 310 272 271 233 234 121 122
8 310 311 273 272 234 235 120 121
8 311 312 274 273 235 236 119 120
8 312 313 275 274 236 237 118 119
8 313 314 276 275 237 238 117 118
8 314 240 138 276 238 116 10 117
8 143 55 183 277 12 3 94 140
8 277 183 93 142 140 94 6 13
8 15 0 95 141 143 55 183 277
8 141 95 7 14 277 183 93 142
8 137 239 278 145 8 135 144 17
8 239 136 146 278 135 11 16 144
8 0 55 143 15 137 239 278 145
8 55 3 12 143 239 136 146 278
CELL_TYPES 160
12
12
12
12
12
12
12
12
12
12
12
12
12
12
12
12
12
12
12
12
12
12
12
12
12
12
12
12
12
12
12
12
12
12
12
12
12
12
12
12
12
12
12
12
12
12
12
12
12
12
12
12
12
12
12
12
12
12
12
12
12
12
12
12
12
12
12
12
12
12
12
12
12
12
12
12
12
12
12
12
12
12
12
12
12
12
12
12
12
12
12
12
12
12
12
12
12
12
12
12
12
12
12
12
12
12
12
12
12
12
12
12
12
12
12
12
12
12
12
12
12
12
12
12
12
12
12
12
12
12
12
12
12
12
12
12
12
12
12
12
12
12
12
12
12
12
12
12
12
12
12
12
12
12
12
12
12
12
12
12
CELL_DATA 160
SCALARS von_mises float 1
LOOKUP_TABLE default
3.1545
5.33382
6.60225
5.69529
5.91875
5.92343
5.89807
5.90598
5.90722
5.90411
5.90739
5.90563
5.89864
5.92268
5.91958
5.69492
6.60168
5.33462
3.15957
3.15471
5.33314
6.60219
5.69578
5.91821
5.924
5.89742
5.90675
5.9063
5.90517
5.90617
5.907
5.89712
5.9243
5.918
5.69565
6.60208
5.33542
3.14763
1.54807
2.81028
1.97976
1.94105
1.97134
1.9699
1.95524
1.96644
1.96213
1.96224
1.96223
1.96629
1.95531
1.97006
1.97064
1.94265
1.97824
2.81199
1.54691
1.54856
2.81099
1.97941
1.9416
1.97054
1.97089
1.95405
1.96781
1.96059
1.96392
1.96049
1.968
1.95378
1.97128
1.97016
1.94212
1.97671
2.8105
1.54318
3.15132
5.333
6.59715
5.68707
5.91078
5.9153
5.89026
5.89796
5.89948
5.89598
5.89983
5.8972
5.89147
5.91356
5.91287
5.68469
6.59789
5.33285
3.14984
3.15153
5.33234
6.59709
5.68757
5.91022
5.9159
5.88954
5.89886
5.89833
5.89742
5.89801
5.89952
5.88857
5.91721
5.9087
5.68964
6.5962
5.33556
3.15158
1.54457
2.80361
1.97197
1.93133
1.96167
1.96049
1.94584
1.95694
1.95292
1.95245
1.95347
1.95583
1.94756
1.95824
1.96473
1.92798
1.9746
2.7963
1.54877
1.54505
2.80429
1.9716
1.93187
1.9609
1.96148
1.94461
1.95848
1.95102
1.95484
1.95046
1.95965
1.94266
1.96432
1.95668
1.93737
1.96517
2.81375
1.53523
nan
nan
nan
nan
nan
nan
nan
nan
