instance,element_id,MISES,S11,S22,S33,S12,S13,S23
PART-1-1,1,3.1545,2.41535,-0.781744,0.134337,0.777937,-0.0196047,-0.0279419
PART-1-1,2,5.33382,6.01683,1.10673,0.428779,0.424847,-0.00356605,-0.0594183
PART-1-1,3,6.60225,6.47344,-0.380139,0.200855,-0.292503,0.0230853,-0.0375038
PART-1-1,4,5.69529,5.85479,0.0357767,0.295008,0.0561124,-0.00769928,-0.0484274
PART-1-1,5,5.91875,6.06325,0.026633,0.27088,-0.00604631,0.00974983,-0.0420343
PART-1-1,6,5.92343,6.04825,-0.0126542,0.274038,-0.0189304,0.00317538,-0.0471454
PART-1-1,7,5.89807,6.03001,0.000508849,0.273812,-0.00593314,0.00487489,-0.0425569
PART-1-1,8,5.90598,6.03913,0.00260274,0.274228,-0.00822632,0.00459161,-0.0466805
PART-1-1,9,5.90722,6.03799,-0.00182114,0.274021,-0.00795689,0.0046638,-0.042938
PART-1-1,10,5.90411,6.03659,0.00162508,0.273904,-0.00711334,0.00462508,-0.046486
PART-1-1,11,5.90739,6.03799,-0.00200588,0.273842,-0.00535583,0.00463802,-0.0428921
PART-1-1,12,5.90563,6.03916,0.00294964,0.274626,-0.00615299,0.00467364,-0.046767
PART-1-1,13,5.89864,6.02997,-3.46579e-05,0.273127,-0.00707665,0.00439106,-0.0424239
PART-1-1,14,5.92268,6.04841,-0.0120216,0.275087,0.00408979,0.00611696,-0.0473018
PART-1-1,15,5.91958,6.06293,0.0256935,0.269448,-0.00662952,-0.000514604,-0.0418505
PART-1-1,16,5.69492,5.85516,0.0367446,0.296669,-0.0707421,0.0167473,-0.0486438
PART-1-1,17,6.60168,6.47303,-0.382472,0.199477,0.277055,-0.0138147,-0.037463
PART-1-1,18,5.33462,6.01444,1.10587,0.428842,-0.436569,0.0117507,-0.0584371
PART-1-1,19,3.15957,2.41402,-0.780666,0.136838,-0.787809,0.024619,-0.0283843
PART-1-1,20,3.15471,2.41478,-0.782337,0.134417,0.778186,0.0246244,0.0295889
PART-1-1,21,5.33314,6.01622,1.10723,0.428755,0.425089,0.0132681,0.0595318
PART-1-1,22,6.60219,6.47367,-0.379778,0.200886,-0.292561,-0.0133188,0.0372832
PART-1-1,23,5.69578,5.85485,0.0351291,0.294926,0.0559501,0.0169111,0.0484206
PART-1-1,24,5.91821,6.06318,0.0273725,0.271024,-0.00602769,-0.000357506,0.0420716
PART-1-1,25,5.924,6.04826,-0.0135199,0.273835,-0.0189816,0.00622623,0.0470597
PART-1-1,26,5.89742,6.03004,0.00154881,0.274085,-0.00604429,0.0044929,0.0426176
PART-1-1,27,5.90675,6.03908,0.00136514,0.273875,-0.00812985,0.00479522,0.0465692
PART-1-1,28,5.9063,6.03806,-0.000386221,0.274481,-0.00827434,0.00471179,0.0430481
PART-1-1,29,5.90517,6.03652,1.62777e-06,0.273309,-0.00671459,0.00476171,0.0463146
PART-1-1,30,5.90617,6.03809,-0.000213026,0.274618,-0.00609836,0.00473233,0.0430782
PART-1-1,31,5.907,6.03904,0.00103161,0.273614,-0.00518007,0.00472398,0.0465189
PART-1-1,32,5.89712,6.03013,0.00199482,0.274455,-0.00853268,0.00492911,0.042683
PART-1-1,33,5.9243,6.04817,-0.0140054,0.273337,0.00594224,0.00337262,0.0470253
PART-1-1,34,5.918,6.06354,0.0278297,0.271771,-0.00883705,0.00951902,0.0420423
PART-1-1,35,5.69565,5.85399,0.035578,0.293582,-0.0680783,-0.00699315,0.0485511
PART-1-1,36,6.60208,6.47622,-0.380668,0.203556,0.27672,0.0215003,0.0368477
PART-1-1,37,5.33542,6.01468,1.11187,0.423535,-0.435679,-0.00293672,0.0609813
PART-1-1,38,3.14763,2.40946,-0.77601,0.143779,-0.783253,-0.0210677,0.0289975
PART-1-1,39,1.54807,-0.803979,-0.769315,-0.0525529,-0.786274,0.00223152,0.0259052
PART-1-1,40,2.81028,-1.99937,1.10329,-0.11923,-0.43132,0.00999791,0.0613874
PART-1-1,41,1.97976,-2.15012,-0.380474,-0.112675,0.281253,-0.0111688,0.0387939
PART-1-1,42,1.94105,-1.94625,0.034333,-0.0575583,-0.0631391,0.000462465,0.046742
PART-1-1,43,1.97134,-2.01523,0.0275388,-0.127274,-0.000711235,0.00170424,0.0430874
PART-1-1,44,1.9699,-2.01015,-0.0140698,-0.071314,0.0124333,-0.00615839,0.0469197
PART-1-1,45,1.95524,-2.00412,0.00154358,-0.106596,-2.4263e-05,0.00261738,0.0425241
PART-1-1,46,1.96644,-2.00714,0.000942046,-0.0888136,0.00263903,-0.00430623,0.0469657
PART-1-1,47,1.96213,-2.00675,-0.00050222,-0.0949574,0.00294905,-0.000110464,0.0427371
PART-1-1,48,1.96224,-2.00631,-0.000308231,-0.0945841,0.00236767,-0.00149887,0.0468119
PART-1-1,49,1.96223,-2.00674,-0.000508779,-0.0947007,0.00139645,-0.00292174,0.0426814
PART-1-1,50,1.96629,-2.00717,0.00103838,-0.0892957,0.00217059,0.00134441,0.0470771
PART-1-1,51,1.95531,-2.00407,0.00119368,-0.105956,0.0042281,-0.00571951,0.0423582
PART-1-1,52,1.97006,-2.01028,-0.0132397,-0.0719977,-0.00748942,0.00331469,0.0471291
PART-1-1,53,1.97064,-2.01511,0.0260075,-0.126724,0.00483646,-0.0049534,0.0428779
PART-1-1,54,1.94265,-1.94638,0.0363027,-0.0577082,0.0678414,-0.00304446,0.0469069
PART-1-1,55,1.97824,-2.15142,-0.382387,-0.113301,-0.277391,0.00768942,0.0388845
PART-1-1,56,2.81199,-1.99813,1.10333,-0.117366,0.436798,-0.0118074,0.0612517
PART-1-1,57,1.54691,-0.801784,-0.775149,-0.0559185,0.785944,-0.00247553,0.0295874
PART-1-1,58,1.54856,-0.803776,-0.770071,-0.0526316,-0.786486,-0.00391259,-0.0276231
PART-1-1,59,2.81099,-1.99909,1.1043,-0.119055,-0.431578,-0.0132568,-0.0614074
PART-1-1,60,1.97941,-2.15018,-0.380978,-0.112997,0.281288,0.00801266,-0.0386578
PART-1-1,61,1.9416,-1.94627,0.0349264,-0.0570735,-0.0629863,-0.00359306,-0.0467321
PART-1-1,62,1.97054,-2.0152,0.0266421,-0.127923,-0.000728523,-0.00476438,-0.0431388
PART-1-1,63,1.97089,-2.01016,-0.0128822,-0.0705036,0.012497,0.0030002,-0.0468518
PART-1-1,64,1.95405,-2.00413,0.000112766,-0.107576,4.34788e-05,-0.0057041,-0.0425812
PART-1-1,65,1.96781,-2.00711,0.00258217,-0.0876529,0.00263105,0.00117979,-0.0468893
PART-1-1,66,1.96059,-2.00679,-0.00229847,-0.0963203,0.00310596,-0.00299655,-0.0428182
PART-1-1,67,1.96392,-2.00625,0.00155892,-0.0929968,0.00223033,-0.00161932,-0.0467031
PART-1-1,68,1.96049,-2.00681,-0.00229867,-0.0965475,0.0017377,-0.000182242,-0.0428013
PART-1-1,69,1.968,-2.00707,0.00254149,-0.0871494,0.00178979,-0.00447606,-0.046931
PART-1-1,70,1.95378,-2.00418,0.000294862,-0.108462,0.00488542,0.00265491,-0.042496
PART-1-1,71,1.97128,-2.0101,-0.0133023,-0.0690552,-0.00819145,-0.006507,-0.047022
PART-1-1,72,1.97016,-2.0153,0.027578,-0.130215,0.00582708,0.00205431,-0.0427981
PART-1-1,73,1.94212,-1.94556,0.0332263,-0.0535245,0.0675112,-0.000311156,-0.047327
PART-1-1,74,1.97671,-2.15116,-0.377375,-0.118362,-0.276878,-0.010169,-0.0376169
PART-1-1,75,2.8105,-1.99614,1.1007,-0.111238,0.440046,0.00948772,-0.0624878
PART-1-1,76,1.54318,-0.798863,-0.771523,-0.0633583,0.786995,0.0046184,-0.0234922
PART-1-1,77,3.15132,-2.40847,0.76905,-0.134914,0.792869,0.0190716,-0.0280981
PART-1-1,78,5.333,-6.01055,-1.10761,-0.428545,0.447527,0.00307503,-0.059601
PART-1-1,79,6.59715,-6.46881,0.385703,-0.201006,-0.264293,-0.0230369,-0.0375901
PART-1-1,80,5.68707,-5.846,-0.0357154,-0.295501,0.0774343,0.00749165,-0.0485519
PART-1-1,81,5.91078,-6.05512,-0.0264995,-0.270804,0.0145471,-0.00991132,-0.0422043
PART-1-1,82,5.9153,-6.04033,0.0128154,-0.274492,0.000534869,-0.00328654,-0.0472105
PART-1-1,83,5.89026,-6.02207,-0.000330256,-0.27383,0.0119147,-0.00502256,-0.0427744
PART-1-1,84,5.89796,-6.03121,-0.00245792,-0.274615,0.00853485,-0.00469392,-0.0467041
PART-1-1,85,5.89948,-6.0301,0.00212844,-0.274062,0.00698262,-0.00477766,-0.0432092
PART-1-1,86,5.89598,-6.02864,-0.00162274,-0.27431,0.00716455,-0.00472068,-0.0464493
PART-1-1,87,5.89983,-6.03011,0.00257354,-0.273823,0.00639656,-0.00471796,-0.0432402
PART-1-1,88,5.8972,-6.0312,-0.00339,-0.275132,0.00591632,-0.00476662,-0.0466496
PART-1-1,89,5.89147,-6.0221,0.00119482,-0.272969,0.00121211,-0.0044384,-0.0428664
PART-1-1,90,5.91356,-6.04035,0.0105469,-0.275766,0.0143078,-0.0062262,-0.0471083
PART-1-1,91,5.91287,-6.05489,-0.0235145,-0.269105,-0.00186217,0.000437846,-0.0423967
PART-1-1,92,5.68469,-5.84701,-0.039437,-0.297453,-0.0625575,-0.0169123,-0.0484688
PART-1-1,93,6.59789,-6.46576,0.388297,-0.199346,0.277847,0.0132968,-0.0380441
PART-1-1,94,5.33285,-6.01519,-1.11124,-0.428832,-0.434625,-0.014284,-0.0607313
PART-1-1,95,3.14984,-2.41704,0.766549,-0.137345,-0.783721,-0.0267672,-0.0259719
PART-1-1,96,3.15153,-2.40791,0.769643,-0.135001,0.793104,-0.0240707,0.0297842
PART-1-1,97,5.33234,-6.00994,-1.10814,-0.428491,0.447801,-0.0127677,0.0597726
PART-1-1,98,6.59709,-6.46904,0.385381,-0.201082,-0.264392,0.0132768,0.0373789
PART-1-1,99,5.68757,-5.84606,-0.0351223,-0.29535,0.0773089,-0.0166874,0.0486439
PART-1-1,100,5.91022,-6.05505,-0.0271718,-0.27104,0.0145565,0.000530786,0.042194
PART-1-1,101,5.9159,-6.04035,0.0136082,-0.274163,0.000435201,-0.00609951,0.0472744
PART-1-1,102,5.88954,-6.02208,-0.00131794,-0.27426,0.0119524,-0.00433552,0.0427153
PART-1-1,103,5.89886,-6.03118,-0.0012194,-0.274059,0.00831885,-0.00467527,0.0468231
PART-1-1,104,5.89833,-6.03012,0.000575572,-0.274773,0.00722518,-0.004591,0.0430894
PART-1-1,105,5.89742,-6.02862,0.000324322,-0.273402,0.00664392,-0.00464627,0.0466315
PART-1-1,106,5.89801,-6.03013,0.000124531,-0.274976,0.00706372,-0.00464928,0.0430406
PART-1-1,107,5.89952,-6.03117,-0.000284996,-0.273669,0.00482942,-0.00461436,0.0469179
PART-1-1,108,5.88857,-6.02215,-0.00271985,-0.27482,0.00259297,-0.0048892,0.0425506
PART-1-1,109,5.91721,-6.04021,0.0155974,-0.273423,0.0123646,-0.00328741,0.0474965
PART-1-1,110,5.9087,-6.05537,-0.029656,-0.272068,0.000530377,-0.00954806,0.0418187
PART-1-1,111,5.68964,-5.84582,-0.0313024,-0.293711,-0.0656854,0.00684757,0.0489884
PART-1-1,112,6.5962,-6.46951,0.381238,-0.204028,0.282067,-0.021592,0.0365706
PART-1-1,113,5.33556,-6.00994,-1.10166,-0.423067,-0.437904,-3.87493e-05,0.0591009
PART-1-1,114,3.15158,-2.40733,0.779919,-0.144453,-0.787747,0.0181066,0.0314952
PART-1-1,115,1.54457,0.796544,0.773199,0.052405,-0.784586,-0.00234374,0.0260621
PART-1-1,116,2.80361,1.99135,-1.09803,0.119629,-0.441032,-0.00992542,0.0612015
PART-1-1,117,1.97197,2.14386,0.378881,0.112657,0.27559,0.0114345,0.0388646
PART-1-1,118,1.93133,1.93587,-0.0341276,0.0575998,-0.0704073,-0.000326257,0.0467386
PART-1-1,119,1.96167,2.00548,-0.0276141,0.127363,-0.00778345,-0.00157719,0.0431387
PART-1-1,120,1.96049,2.00061,0.0135746,0.0714382,0.00596423,0.00631889,0.0468754
PART-1-1,121,1.94584,1.99457,-0.00170406,0.106547,-0.00595231,-0.00251204,0.0426147
PART-1-1,122,1.95694,1.99759,-0.00123628,0.0890784,-0.00294619,0.00443459,0.0468928
PART-1-1,123,1.95292,1.99724,0.000120972,0.0947773,-0.00197004,0.00020936,0.042857
PART-1-1,124,1.95245,1.99674,0.000416063,0.0949694,-0.00241763,0.0015938,0.0467059
PART-1-1,125,1.95347,1.99724,-0.000569689,0.094409,-0.00243286,0.00301293,0.0428426
PART-1-1,126,1.95583,1.99759,0.000202842,0.0897816,-0.00193689,-0.00127851,0.0469229
PART-1-1,127,1.94756,1.99459,-0.00403839,0.105581,0.00164067,0.00580545,0.0425707
PART-1-1,128,1.95824,2.00061,0.0169714,0.0725403,-0.010955,-0.00325765,0.0469115
PART-1-1,129,1.96473,2.00545,-0.0323539,0.126323,0.00363445,0.00506654,0.0431164
PART-1-1,130,1.92798,1.93663,-0.0280707,0.0582759,0.0650054,0.00326847,0.0465751
PART-1-1,131,1.9746,2.1425,0.371092,0.11278,-0.278126,-0.00747842,0.0391618
PART-1-1,132,2.7963,1.99715,-1.08795,0.118163,0.430837,0.0147611,0.0584582
PART-1-1,133,1.54877,0.804204,0.748444,0.0556305,0.790304,0.00526108,0.0323741
PART-1-1,134,1.54505,0.796347,0.773937,0.0525056,-0.78479,0.00400338,-0.0277661
PART-1-1,135,2.80429,1.99107,-1.09898,0.119385,-0.441302,0.0131718,-0.0612744
PART-1-1,136,1.9716,2.14393,0.379267,0.113092,0.275642,-0.00828794,-0.0386951
PART-1-1,137,1.93187,1.9359,-0.0345338,0.0569467,-0.0702664,0.00343921,-0.0467979
PART-1-1,138,1.9609,2.00544,-0.0269627,0.128235,-0.00779963,0.00462217,-0.043128
PART-1-1,139,1.96148,2.00063,0.0126729,0.0703381,0.00605139,-0.00317806,-0.046917
PART-1-1,140,1.94461,1.99456,-0.000542454,0.107887,-0.0059512,0.0055861,-0.0425576
PART-1-1,141,1.95848,1.9976,-0.00271517,0.0874701,-0.00281713,-0.00132796,-0.046984
PART-1-1,142,1.95102,1.99723,0.00203105,0.0966816,-0.0020571,0.00288805,-0.0427521
PART-1-1,143,1.95484,1.99675,-0.00208704,0.0927287,-0.00215707,0.00150222,-0.0468461
PART-1-1,144,1.95046,1.99724,0.00276034,0.0970268,-0.0027038,8.53431e-05,-0.0426797
PART-1-1,145,1.95965,1.99759,-0.00425801,0.0867344,-0.00143299,0.00439118,-0.0471359
PART-1-1,146,1.94266,1.99459,0.00196844,0.109112,0.00105283,-0.00273611,-0.0423079
PART-1-1,147,1.96432,2.00053,0.00895598,0.0684595,-0.0100661,0.0064718,-0.0473104
PART-1-1,148,1.95668,2.00551,-0.0216231,0.131025,0.00250241,-0.00206445,-0.0425616
PART-1-1,149,1.93737,1.9358,-0.042087,0.0528679,0.0667084,0.000395143,-0.0477179
PART-1-1,150,1.96517,2.14283,0.390667,0.118964,-0.281292,0.0105661,-0.0375115
PART-1-1,151,2.81375,1.98966,-1.11401,0.111174,0.437097,-0.00693843,-0.0648996
PART-1-1,152,1.53523,0.79622,0.791849,0.0633983,0.779264,-0.00229059,-0.0209496
