instance,element_id,MISES,S11,S22,S33,S12,S13,S23
PART-1-1,1,31.5791,21.0228,-12.8476,-2.00689,5.75498,-0.0506559,0.331725
PART-1-1,2,31.5791,21.0228,-12.8476,-2.00689,5.75498,0.0506559,-0.331725
PART-1-1,3,17.5473,-5.67448,-10.7428,0.928548,-8.26087,-0.000166524,-0.377116
PART-1-1,4,17.5473,-5.67448,-10.7428,0.928548,-8.26087,0.000166529,0.377116
PART-1-1,5,3.23642,-1.65907,-1.60491,-0.179045,-1.66159,0.0288909,0.159173
PART-1-1,6,3.23642,-1.65907,-1.60491,-0.179045,-1.66159,-0.0288909,-0.159173
PART-1-1,7,37.6347,42.6799,15.813,2.34735,7.09493,0.0726551,-0.365803
PART-1-1,8,37.6347,42.6799,15.813,2.34735,7.09493,-0.0726551,0.365803
PART-1-1,9,11.0389,-1.50195,8.68288,-1.06909,-2.70144,-0.0237148,0.388559
PART-1-1,10,11.0389,-1.50195,8.68288,-1.06909,-2.70144,0.0237148,-0.388559
PART-1-1,11,12.8063,-9.40285,-1.75752,0.116661,-5.40456,-0.0326484,-0.162217
PART-1-1,12,12.8063,-9.40285,-1.75752,0.116661,-5.40456,0.0326484,0.162217
PART-1-1,13,40.2452,36.8741,-5.31361,-1.03423,-0.836143,-0.0187979,-0.0079436
PART-1-1,14,40.2452,36.8741,-5.31361,-1.03423,-0.836143,0.0187979,0.0079436
PART-1-1,15,11.3278,12.5149,4.20452,0.455836,2.16248,0.00402075,-0.0827253
PART-1-1,16,11.3278,12.5149,4.20452,0.455836,2.16248,-0.00402075,0.0827253
PART-1-1,17,20.1235,-16.4393,5.8444,0.0990716,-1.06542,0.0299957,0.0341079
PART-1-1,18,20.1235,-16.4393,5.8444,0.0990716,-1.06542,-0.0299957,-0.0341079
PART-1-1,19,33.6144,35.3219,3.15524,0.540335,-1.19414,-0.0246607,0.0433075
PART-1-1,20,33.6144,35.3219,3.15524,0.540335,-1.19414,0.0246606,-0.0433075
PART-1-1,21,14.1185,12.6099,-1.94262,-0.128446,-1.88558,0.0122465,0.0176608
PART-1-1,22,14.1185,12.6099,-1.94262,-0.128446,-1.88558,-0.0122465,-0.0176608
PART-1-1,23,15.1002,-16.1186,-2.81313,-0.263732,1.87595,-0.0101932,0.00738607
PART-1-1,24,15.1002,-16.1186,-2.81313,-0.263732,1.87595,0.0101932,-0.00738607
PART-1-1,25,38.9736,37.9478,-1.68806,-0.276515,-0.791198,0.0454853,-0.0697456
PART-1-1,26,38.9736,37.9478,-1.68806,-0.276515,-0.791198,-0.0454853,0.0697456
PART-1-1,27,9.93227,9.97106,0.277625,0.00300714,0.805811,-0.0118716,0.0225981
PART-1-1,28,9.93227,9.97106,0.277625,0.00300714,0.805811,0.0118716,-0.0225981
PART-1-1,29,15.6044,-15.1275,0.675232,0.259002,-0.239598,-0.0146236,-0.0261215
PART-1-1,30,15.6044,-15.1275,0.675232,0.259002,-0.239598,0.0146236,0.0261215
PART-1-1,31,35.8163,36.1687,0.537594,0.201326,-0.612128,-0.0514705,0.0405905
PART-1-1,32,35.8163,36.1687,0.537594,0.201326,-0.612128,0.0514705,-0.0405905
PART-1-1,33,11.2452,11.0995,-0.224644,0.0286548,-0.58361,0.00768309,-0.0117234
PART-1-1,34,11.2452,11.0995,-0.224644,0.0286548,-0.58361,-0.00768309,0.0117234
PART-1-1,35,15.3056,-15.404,-0.00624922,-0.234796,0.459771,0.0294468,0.0185706
PART-1-1,36,15.3056,-15.404,-0.00624922,-0.234796,0.459771,-0.0294468,-0.0185706
PART-1-1,37,37.1736,37.0357,-0.0698014,-0.178372,-0.580677,0.0483756,-0.0284264
PART-1-1,38,37.1736,37.0357,-0.0698014,-0.178372,-0.580677,-0.0483756,0.0284264
PART-1-1,39,10.5175,10.6121,0.180635,0.0141852,-0.113502,-0.00450096,0.00837089
PART-1-1,40,10.5175,10.6121,0.180635,0.0141852,-0.113502,0.00450096,-0.00837089
PART-1-1,41,15.2674,-15.311,-0.235716,0.133622,0.20058,-0.0331493,-0.012979
PART-1-1,42,15.2674,-15.311,-0.235716,0.133622,0.20058,0.0331493,0.012979
PART-1-1,43,36.6847,36.7502,0.0275165,0.141215,-0.676948,-0.0407418,0.00771532
PART-1-1,44,36.6847,36.7502,0.0275165,0.141215,-0.676948,0.0407418,-0.00771532
PART-1-1,45,10.8852,10.819,-0.112912,-0.013094,-0.143678,0.00292789,0.00392787
PART-1-1,46,10.8852,10.819,-0.112912,-0.013094,-0.143678,-0.00292789,-0.00392787
PART-1-1,47,15.455,-15.3663,0.254624,-0.0955756,0.250602,0.0296181,0.00510483
PART-1-1,48,15.455,-15.3663,0.254624,-0.0955756,0.250602,-0.0296181,-0.00510483
PART-1-1,49,36.8292,36.7543,-0.00529674,-0.118642,-0.559037,0.0314157,-0.00685672
PART-1-1,50,36.8292,36.7543,-0.00529674,-0.118642,-0.559037,-0.0314157,0.00685672
PART-1-1,51,10.7394,10.8018,0.0936037,0.0469756,-0.236954,-0.00219339,-0.00235799
PART-1-1,52,10.7394,10.8018,0.0936037,0.0469756,-0.236954,0.00219338,0.00235799
PART-1-1,53,15.27,-15.3615,-0.217059,0.0158698,0.280515,-0.0228667,-0.00389967
PART-1-1,54,15.27,-15.3615,-0.217059,0.0158698,0.280515,0.0228667,0.00389967
PART-1-1,55,36.8008,36.8477,0.0532312,0.0736383,-0.63681,-0.0226731,-0.00208186
PART-1-1,56,36.8008,36.8477,0.0532312,0.0736383,-0.63681,0.0226731,0.00208186
PART-1-1,57,10.8071,10.7471,-0.0891248,-0.0263036,-0.12485,0.00205291,0.00794565
PART-1-1,58,10.8071,10.7471,-0.0891248,-0.0263036,-0.12485,-0.00205291,-0.00794565
PART-1-1,59,15.4167,-15.3449,0.143435,-0.0109922,0.226033,0.0155473,0.000876202
PART-1-1,60,15.4167,-15.3449,0.143435,-0.0109922,0.226033,-0.0155473,-0.000876202
PART-1-1,61,36.7989,36.7417,-0.0333947,-0.0569585,-0.541966,0.0150962,-0.00318905
PART-1-1,62,36.7989,36.7417,-0.0333947,-0.0569585,-0.541966,-0.0150962,0.00318905
PART-1-1,63,10.754,10.8098,0.0764746,0.0468928,-0.203706,-0.00184142,-0.00300486
PART-1-1,64,10.754,10.8098,0.0764746,0.0468928,-0.203706,0.00184142,0.00300486
PART-1-1,65,15.2941,-15.3635,-0.114315,-0.0375704,0.255111,-0.00931703,-0.00251497
PART-1-1,66,15.2941,-15.3635,-0.114315,-0.0375704,0.255111,0.00931703,0.00251497
PART-1-1,67,36.8086,36.8368,0.0607344,0.0244173,-0.5937,-0.00939238,-0.00256942
PART-1-1,68,36.8086,36.8368,0.0607344,0.0244173,-0.5937,0.00939238,0.00256942
PART-1-1,69,10.8018,10.7557,-0.0670819,-0.0193772,-0.143037,0.00168564,0.00704448
PART-1-1,70,10.8018,10.7557,-0.0670819,-0.0193772,-0.143037,-0.00168564,-0.00704448
PART-1-1,71,15.3987,-15.3476,0.07386,0.0181192,0.227406,0.00466218,0.000896062
PART-1-1,72,15.3987,-15.3476,0.07386,0.0181192,0.227406,-0.00466217,-0.000896062
PART-1-1,73,36.7922,36.7558,-0.0275069,-0.0225724,-0.527636,0.00519328,-0.00382552
PART-1-1,74,36.7922,36.7558,-0.0275069,-0.0225724,-0.527636,-0.00519329,0.00382552
PART-1-1,75,10.7599,10.8017,0.0538999,0.0382349,-0.176133,-0.00130876,-0.00180887
PART-1-1,76,10.7599,10.8017,0.0538999,0.0382349,-0.176133,0.00130876,0.00180887
PART-1-1,77,15.3072,-15.3618,-0.0698271,-0.0501279,0.234334,-0.00170459,-0.00297268
PART-1-1,78,15.3072,-15.3618,-0.0698271,-0.0501279,0.234334,0.00170459,0.00297268
PART-1-1,79,36.8165,36.8292,0.0474796,0.00283378,-0.551893,-0.00262304,-0.00164743
PART-1-1,80,36.8165,36.8292,0.0474796,0.00283378,-0.551893,0.00262303,0.00164743
PART-1-1,81,10.7942,10.7612,-0.0481772,-0.0115337,-0.147107,0.00102461,0.00598372
PART-1-1,82,10.7942,10.7612,-0.0481772,-0.0115337,-0.147107,-0.00102461,-0.00598372
PART-1-1,83,15.3879,-15.3494,0.046646,0.0208034,0.220657,8.13844e-05,0.00137541
PART-1-1,84,15.3879,-15.3494,0.046646,0.0208034,0.220657,-8.13809e-05,-0.00137541
PART-1-1,85,36.785,36.7607,-0.0168591,-0.0104552,-0.510917,0.00102016,-0.00464132
PART-1-1,86,36.785,36.7607,-0.0168591,-0.0104552,-0.510917,-0.00102017,0.00464132
PART-1-1,87,10.7674,10.7995,0.0389374,0.0322591,-0.159061,-0.000616552,-0.00102882
PART-1-1,88,10.7674,10.7995,0.0389374,0.0322591,-0.159061,0.00061655,0.00102882
PART-1-1,89,15.3161,-15.3615,-0.052071,-0.0480742,0.219216,0.000462871,-0.00332315
PART-1-1,90,15.3161,-15.3615,-0.052071,-0.0480742,0.219216,-0.000462868,0.00332315
PART-1-1,91,36.8216,36.8286,0.0386543,-0.0031823,-0.512194,-0.000345803,-0.00105783
PART-1-1,92,36.8216,36.8286,0.0386543,-0.0031823,-0.512194,0.000345796,0.00105783
PART-1-1,93,10.7883,10.7622,-0.0386335,-0.00763156,-0.145697,0.000358533,0.00548145
PART-1-1,94,10.7883,10.7622,-0.0386335,-0.00763156,-0.145697,-0.000358535,-0.00548145
PART-1-1,95,15.3812,-15.3499,0.0364125,0.0175959,0.21101,-0.000390859,0.00158052
PART-1-1,96,15.3812,-15.3499,0.0364125,0.0175959,0.21101,0.000390863,-0.00158052
PART-1-1,97,36.7824,36.7617,-0.013583,-0.0080842,-0.492614,-0.000100639,-0.00495743
PART-1-1,98,36.7824,36.7617,-0.013583,-0.0080842,-0.492614,0.000100632,0.00495743
PART-1-1,99,10.7705,10.7997,0.0338206,0.0303582,-0.144183,8.31972e-07,-0.000785788
PART-1-1,100,10.7705,10.7997,0.0338206,0.0303582,-0.144183,-8.34215e-07,0.000785788
PART-1-1,101,15.3197,-15.3618,-0.046658,-0.0459476,0.205129,-5.07415e-05,-0.00340193
PART-1-1,102,15.3197,-15.3618,-0.046658,-0.0459476,0.205129,5.0745e-05,0.00340193
PART-1-1,103,36.8215,36.8296,0.0376164,-0.00318963,-0.473338,0.000389507,-0.0010307
PART-1-1,104,36.8215,36.8296,0.0376164,-0.00318963,-0.473338,-0.000389514,0.0010307
PART-1-1,105,10.7883,10.7622,-0.0387112,-0.00763436,-0.143668,-0.000237356,0.0054837
PART-1-1,106,10.7883,10.7622,-0.0387112,-0.00763436,-0.143668,0.000237354,-0.0054837
PART-1-1,107,15.3813,-15.3501,0.0367576,0.0176115,0.201187,0.000442991,0.00155334
PART-1-1,108,15.3813,-15.3501,0.0367576,0.0176115,0.201187,-0.000442988,-0.00155334
PART-1-1,109,36.785,36.7617,-0.0178348,-0.0104359,-0.474329,-0.00120614,-0.00468847
PART-1-1,110,36.785,36.7617,-0.0178348,-0.0104359,-0.474329,0.00120614,0.00468847
PART-1-1,111,10.7674,10.8003,0.0381708,0.0322603,-0.12923,0.000603138,-0.00103291
PART-1-1,112,10.7674,10.8003,0.0381708,0.0322603,-0.12923,-0.00060314,0.00103291
PART-1-1,113,15.316,-15.3622,-0.0514616,-0.0480987,0.190923,-0.000552372,-0.003277
PART-1-1,114,15.316,-15.3622,-0.0514616,-0.0480987,0.190923,0.000552376,0.003277
PART-1-1,115,36.8164,36.8323,0.0442837,0.00279207,-0.433609,0.00263614,-0.00159528
PART-1-1,116,36.8164,36.8323,0.0442837,0.00279207,-0.433609,-0.00263615,0.00159528
PART-1-1,117,10.7942,10.7614,-0.0483207,-0.0115228,-0.142394,-0.000872603,0.00598866
PART-1-1,118,10.7942,10.7614,-0.0483207,-0.0115228,-0.142394,0.000872601,-0.00598866
PART-1-1,119,15.3879,-15.3501,0.0476007,0.0208229,0.191779,-5.34391e-05,0.00132728
PART-1-1,120,15.3879,-15.3501,0.0476007,0.0208229,0.191779,5.34426e-05,-0.00132728
PART-1-1,121,36.7922,36.7578,-0.0293007,-0.0224949,-0.457572,-0.00533406,-0.00386048
PART-1-1,122,36.7922,36.7578,-0.0293007,-0.0224949,-0.457572,0.00533405,0.00386048
PART-1-1,123,10.76,10.8034,0.0521388,0.0381969,-0.111985,0.0012478,-0.00181204
PART-1-1,124,10.76,10.8034,0.0521388,0.0381969,-0.111985,-0.0012478,0.00181204
PART-1-1,125,15.3071,-15.3633,-0.0684148,-0.0501221,0.175409,0.00165144,-0.00294939
PART-1-1,126,15.3071,-15.3633,-0.0684148,-0.0501221,0.175409,-0.00165143,0.00294939
PART-1-1,127,36.8086,36.8421,0.055156,0.0242849,-0.391995,0.00934835,-0.00258244
PART-1-1,128,36.8086,36.8421,0.055156,0.0242849,-0.391995,-0.00934836,0.00258244
PART-1-1,129,10.8017,10.7556,-0.0668301,-0.0192879,-0.146613,-0.0014689,0.00704163
PART-1-1,130,10.8017,10.7556,-0.0668301,-0.0192879,-0.146613,0.0014689,-0.00704163
PART-1-1,131,15.3987,-15.3487,0.0750601,0.0180599,0.185647,-0.0046813,0.00093444
PART-1-1,132,15.3987,-15.3487,0.0750601,0.0180599,0.185647,0.0046813,-0.00093444
PART-1-1,133,36.7987,36.7445,-0.0357236,-0.0567507,-0.442651,-0.0151783,-0.00309192
PART-1-1,134,36.7987,36.7445,-0.0357236,-0.0567507,-0.442651,0.0151783,0.00309192
PART-1-1,135,10.7542,10.813,0.0729268,0.0467226,-0.0843169,0.0017026,-0.00298921
PART-1-1,136,10.7542,10.813,0.0729268,0.0467226,-0.0843169,-0.00170261,0.00298921
PART-1-1,137,15.2942,-15.3663,-0.111513,-0.0374244,0.153603,0.00931583,-0.00266021
PART-1-1,138,15.2942,-15.3663,-0.111513,-0.0374244,0.153603,-0.00931582,0.00266021
PART-1-1,139,36.8011,36.8552,0.0449927,0.0733293,-0.349905,0.0225917,-0.00230361
PART-1-1,140,36.8011,36.8552,0.0449927,0.0733293,-0.349905,-0.0225918,0.00230361
PART-1-1,141,10.8066,10.746,-0.0874206,-0.0260093,-0.16482,-0.00175808,0.00791035
PART-1-1,142,10.8066,10.746,-0.0874206,-0.0260093,-0.16482,0.00175808,-0.00791035
PART-1-1,143,15.4163,-15.3458,0.144083,-0.011265,0.188696,-0.015609,0.00117518
PART-1-1,144,15.4163,-15.3458,0.144083,-0.011265,0.188696,0.015609,-0.00117518
PART-1-1,145,36.8286,36.758,-0.00803427,-0.118208,-0.424601,-0.0315386,-0.0064752
PART-1-1,146,36.8286,36.758,-0.00803427,-0.118208,-0.424601,0.0315386,0.0064752
PART-1-1,147,10.7402,10.8068,0.0875738,0.0465093,-0.050811,0.00201347,-0.00229952
PART-1-1,148,10.7402,10.8068,0.0875738,0.0465093,-0.0508109,-0.00201347,0.00229952
PART-1-1,149,15.2706,-15.3656,-0.212172,0.0163104,0.125549,0.0228678,-0.00438658
PART-1-1,150,15.2706,-15.3656,-0.212172,0.0163104,0.125549,-0.0228678,0.00438658
PART-1-1,151,36.6854,36.7598,0.0164217,0.14063,-0.308546,0.0408625,0.00715435
PART-1-1,152,36.6854,36.7598,0.0164217,0.14063,-0.308546,-0.0408625,-0.00715435
PART-1-1,153,10.8841,10.8189,-0.11123,-0.0123967,-0.148112,-0.00268533,0.00385409
PART-1-1,154,10.8841,10.8189,-0.11123,-0.0123967,-0.148112,0.00268533,-0.00385409
PART-1-1,155,15.4539,-15.3684,0.255549,-0.0962234,0.167529,-0.0295954,0.00577602
PART-1-1,156,15.4539,-15.3684,0.255549,-0.0962234,0.167529,0.0295954,-0.00577602
PART-1-1,157,37.1727,37.0405,-0.0727502,-0.177633,-0.411507,-0.0490197,-0.0277043
PART-1-1,158,37.1727,37.0405,-0.0727502,-0.177633,-0.411507,0.0490197,0.0277043
PART-1-1,159,10.519,10.6106,0.179877,0.0132159,-0.167293,0.00457,0.00843356
PART-1-1,160,10.519,10.6106,0.179877,0.0132159,-0.167293,-0.00457,-0.00843356
PART-1-1,161,15.2689,-15.3109,-0.233685,0.134499,0.203778,0.0329137,-0.0137591
PART-1-1,162,15.2689,-15.3109,-0.233685,0.134499,0.203778,-0.0329137,0.0137591
PART-1-1,163,35.817,36.1753,0.528771,0.200473,-0.344823,0.0524309,0.0397931
PART-1-1,164,35.817,36.1753,0.528771,0.200473,-0.344823,-0.052431,-0.0397931
PART-1-1,165,11.2434,11.1228,-0.244836,0.0298998,0.281547,-0.00786262,-0.0117262
PART-1-1,166,11.2434,11.1228,-0.244836,0.0298998,0.281547,0.00786262,0.0117262
PART-1-1,167,15.3034,-15.4175,0.0040736,-0.235887,-0.0476805,-0.0290308,0.0192787
PART-1-1,168,15.3034,-15.4175,0.0040736,-0.235887,-0.0476805,0.0290308,-0.0192787
PART-1-1,169,38.9731,37.9623,-1.70072,-0.275704,-0.268465,-0.047229,-0.069038
PART-1-1,170,38.9731,37.9623,-1.70072,-0.275704,-0.268465,0.047229,0.069038
PART-1-1,171,9.93493,9.92052,0.324239,0.00160321,-1.06648,0.0124038,0.0224751
PART-1-1,172,9.93493,9.92052,0.324239,0.00160321,-1.06648,-0.0124038,-0.0224751
PART-1-1,173,15.6075,-15.1032,0.655971,0.260222,0.663368,0.0139426,-0.0264589
PART-1-1,174,15.6075,-15.1032,0.655971,0.260222,0.663368,-0.0139426,0.0264589
PART-1-1,175,33.6148,35.3623,3.11297,0.539792,0.329691,0.0257441,0.043024
PART-1-1,176,33.6148,35.3623,3.11297,0.539792,0.329691,-0.0257441,-0.043024
PART-1-1,177,14.1176,12.7009,-2.03055,-0.127133,1.49537,-0.0118426,0.0178425
PART-1-1,178,14.1176,12.7009,-2.03055,-0.127133,1.49537,0.0118426,-0.0178425
PART-1-1,179,15.0976,-16.2097,-2.72911,-0.264901,-1.51857,0.0104801,0.00707836
PART-1-1,180,15.0976,-16.2097,-2.72911,-0.264901,-1.51857,-0.0104801,-0.00707836
PART-1-1,181,40.2422,36.8872,-5.32523,-1.03437,-0.293144,0.0185843,-0.00856128
PART-1-1,182,40.2422,36.8872,-5.32523,-1.03437,-0.293144,-0.0185843,0.00856128
PART-1-1,183,11.3306,12.3954,4.32497,0.45506,-2.38201,-0.00597008,-0.0826162
PART-1-1,184,11.3306,12.3954,4.32497,0.45506,-2.38201,0.00597008,0.0826162
PART-1-1,185,20.1293,-16.3673,5.77798,0.0999263,1.66043,-0.0292981,0.0349649
PART-1-1,186,20.1293,-16.3673,5.77798,0.0999263,1.66043,0.0292981,-0.0349649
PART-1-1,187,37.6408,42.2871,16.2088,2.34812,-7.80494,-0.0823442,-0.363854
PART-1-1,188,37.6408,42.2871,16.2088,2.34812,-7.80494,0.0823442,0.363854
PART-1-1,189,11.0413,-1.35654,8.53166,-1.06905,2.9687,0.033652,0.387969
PART-1-1,190,11.0413,-1.35654,8.53166,-1.06905,2.9687,-0.033652,-0.387969
PART-1-1,191,12.8067,-9.10563,-2.05556,0.116282,5.60347,0.0286173,-0.163135
PART-1-1,192,12.8067,-9.10563,-2.05556,0.116282,5.60347,-0.0286173,0.163134
PART-1-1,193,31.5777,20.6902,-12.5139,-2.0076,-6.65259,0.0594779,0.330477
PART-1-1,194,31.5777,20.6902,-12.5139,-2.0076,-6.65259,-0.0594779,-0.330477
PART-1-1,195,17.5489,-5.24039,-11.1817,0.928736,8.11433,-0.00967018,-0.377159
PART-1-1,196,17.5489,-5.24039,-11.1817,0.928736,8.11433,0.00967018,0.377159
PART-1-1,197,3.23368,-1.56787,-1.69333,-0.178981,1.65923,-0.0247948,0.159957
PART-1-1,198,3.23368,-1.56787,-1.69333,-0.178981,1.65923,0.0247948,-0.159957
PART-1-1,199,106.292,-99.102,-1.26891,10.5445,11.9258,0.0187653,-1.26106
PART-1-1,200,106.292,-99.102,-1.26891,10.5445,11.9258,-0.0187654,1.26106
PART-1-1,201,217.208,-221.017,1.29049,-9.91527,6.32279,-0.0176612,1.20277
PART-1-1,202,217.208,-221.017,1.29049,-9.91527,6.32279,0.0176612,-1.20277
PART-1-1,203,219.363,-219.112,-1.01779,1.45683,1.73748,0.0308842,-0.201472
PART-1-1,204,219.363,-219.112,-1.01779,1.45683,1.73748,-0.0308841,0.201472
PART-1-1,205,214.351,-213.906,0.525811,-0.118426,5.85871,-0.0220801,0.0486414
PART-1-1,206,214.351,-213.906,0.525811,-0.118426,5.85871,0.0220801,-0.0486414
PART-1-1,207,219.007,-219.658,-0.412365,-0.985316,2.61054,-0.00237485,0.0841794
PART-1-1,208,219.007,-219.658,-0.412365,-0.985316,2.61054,0.00237489,-0.0841794
PART-1-1,209,214.563,-213.917,0.130708,0.865502,4.5856,0.0196226,-0.0736197
PART-1-1,210,214.563,-213.917,0.130708,0.865502,4.5856,-0.0196225,0.0736197
PART-1-1,211,216.808,-217.133,-0.168558,-0.631605,3.26881,-0.0317574,0.0531361
PART-1-1,212,216.808,-217.133,-0.168558,-0.631605,3.26881,0.0317574,-0.0531361
PART-1-1,213,216.12,-215.8,-0.00414016,0.420654,4.00183,0.0364596,-0.0354102
PART-1-1,214,216.12,-215.8,-0.00414016,0.420654,4.00183,-0.0364596,0.0354102
PART-1-1,215,216.29,-216.365,-0.0659456,-0.231768,3.27573,-0.0361475,0.0212203
PART-1-1,216,216.29,-216.365,-0.0659456,-0.231768,3.27573,0.0361475,-0.0212203
PART-1-1,217,216.169,-216.02,-0.0770231,0.179195,3.74559,0.0323391,-0.0215727
PART-1-1,218,216.169,-216.02,-0.0770231,0.179195,3.74559,-0.0323391,0.0215727
PART-1-1,219,216.389,-216.356,0.00726346,-0.0793976,3.17537,-0.0272362,0.0161511
PART-1-1,220,216.389,-216.356,0.00726346,-0.0793976,3.17537,0.0272362,-0.0161511
PART-1-1,221,216.053,-215.989,-0.129927,0.0869648,3.50553,0.021592,-0.021422
PART-1-1,222,216.053,-215.989,-0.129927,0.0869648,3.50553,-0.021592,0.021422
PART-1-1,223,216.472,-216.384,0.0604227,-0.0171172,3.08411,-0.0163812,0.0172813
PART-1-1,224,216.472,-216.384,0.0604227,-0.0171172,3.08411,0.0163813,-0.0172813
PART-1-1,225,216.009,-215.994,-0.162297,0.0434613,3.25715,0.011522,-0.0226664
PART-1-1,226,216.009,-215.994,-0.162297,0.0434613,3.25715,-0.011522,0.0226664
PART-1-1,227,216.489,-216.374,0.0923706,0.0137574,2.99379,-0.00734942,0.0181385
PART-1-1,228,216.489,-216.374,0.0923706,0.0137574,2.99379,0.00734946,-0.0181385
PART-1-1,229,216.004,-216.017,-0.174764,0.0234123,3.01292,0.00343516,-0.0231426
PART-1-1,230,216.004,-216.017,-0.174764,0.0234123,3.01292,-0.00343512,0.0231426
PART-1-1,231,216.49,-216.367,0.105034,0.0239274,2.89813,0.000111768,0.0182848
PART-1-1,232,216.49,-216.367,0.105034,0.0239274,2.89813,-0.00011173,-0.0182848
PART-1-1,233,216.004,-216.024,-0.169344,0.0228191,2.77214,-0.00379705,-0.0230072
PART-1-1,234,216.004,-216.024,-0.169344,0.0228191,2.77214,0.00379708,0.0230072
PART-1-1,235,216.49,-216.378,0.0995669,0.0149578,2.80226,0.00756105,0.0178609
PART-1-1,236,216.49,-216.378,0.0995669,0.0149578,2.80226,-0.00756101,-0.0178609
PART-1-1,237,216.008,-216.016,-0.145881,0.0416328,2.5284,-0.0118609,-0.0222346
PART-1-1,238,216.008,-216.016,-0.145881,0.0416328,2.5284,0.0118609,0.0222346
PART-1-1,239,216.473,-216.392,0.0745896,-0.0146243,2.71078,0.0165615,0.0166778
PART-1-1,240,216.473,-216.392,0.0745896,-0.0146243,2.71078,-0.0165615,-0.0166778
PART-1-1,241,216.052,-216.025,-0.102395,0.0837794,2.28197,-0.0218972,-0.0206309
PART-1-1,242,216.052,-216.025,-0.102395,0.0837794,2.28197,0.0218972,0.0206309
PART-1-1,243,216.391,-216.367,0.0286143,-0.0754865,2.61621,0.0274014,0.01516
PART-1-1,244,216.391,-216.367,0.0286143,-0.0754865,2.61621,-0.0274014,-0.01516
PART-1-1,245,216.167,-216.07,-0.0390501,0.174567,2.04594,-0.0326876,-0.0203898
PART-1-1,246,216.167,-216.07,-0.0390501,0.174567,2.04594,0.0326876,0.0203898
PART-1-1,247,216.292,-216.38,-0.0366424,-0.22646,2.5124,0.03652,0.019881
PART-1-1,248,216.292,-216.38,-0.0366424,-0.22646,2.5124,-0.0365199,-0.019881
PART-1-1,249,216.117,-215.865,0.0448563,0.414815,1.78802,-0.0372892,-0.0340096
PART-1-1,250,216.117,-215.865,0.0448563,0.414815,1.78802,0.0372892,0.0340096
PART-1-1,251,216.812,-217.148,-0.136896,-0.625436,2.53502,0.0331389,0.0518164
PART-1-1,252,216.812,-217.148,-0.136896,-0.625436,2.53502,-0.0331388,-0.0518164
PART-1-1,253,214.556,-214.011,0.20851,0.859381,1.15985,-0.0216795,-0.0726025
PART-1-1,254,214.556,-214.011,0.20851,0.859381,1.15985,0.0216796,0.0726025
PART-1-1,255,219.018,-219.641,-0.413587,-0.979475,3.25245,0.00484579,0.0836092
PART-1-1,256,219.018,-219.641,-0.413587,-0.979475,3.25245,-0.00484575,-0.0836092
PART-1-1,257,214.335,-214.061,0.668085,-0.12306,-0.10179,0.0229793,0.0484325
PART-1-1,258,214.335,-214.061,0.668085,-0.12306,-0.10179,-0.0229793,-0.0484324
PART-1-1,259,219.383,-219.059,-1.06387,1.46007,4.09579,-0.0356913,-0.20089
PART-1-1,260,219.383,-219.059,-1.06387,1.46007,4.09579,0.0356913,0.20089
PART-1-1,261,217.19,-221.183,1.45799,-9.91326,-0.359522,0.0491173,1.20163
PART-1-1,262,217.19,-221.183,1.45799,-9.91326,-0.359522,-0.0491173,-1.20163
PART-1-1,263,106.311,-99.6921,-0.697234,10.5366,-9.292,-0.0521929,-1.25918
PART-1-1,264,106.311,-99.6921,-0.697234,10.5366,-9.292,0.0521928,1.25918
PART-1-1,331,53.1371,-34.7901,-5.05499,0.867183,23.8562,-0.0792632,-2.63508
PART-1-1,332,53.1371,-34.7901,-5.05499,0.867183,23.8562,0.0792632,2.63508
PART-1-1,333,93.6933,-89.6473,6.83917,-1.63654,8.04372,-0.0747552,2.62288
PART-1-1,334,93.6933,-89.6473,6.83917,-1.63654,8.04372,0.0747552,-2.62288
PART-1-1,335,101.347,-103.012,-4.76758,0.828956,-3.51154,0.208899,-0.566729
PART-1-1,336,101.347,-103.012,-4.76758,0.828956,-3.51154,-0.208899,0.566729
PART-1-1,337,99.62,-97.1773,2.94178,0.938126,5.68126,-0.142406,0.0827877
PART-1-1,338,99.62,-97.1773,2.94178,0.938126,5.68126,0.142406,-0.0827877
PART-1-1,339,99.6364,-100.955,-1.73425,-0.919927,-0.578512,0.0673341,0.161339
PART-1-1,340,99.6364,-100.955,-1.73425,-0.919927,-0.578512,-0.067334,-0.161339
PART-1-1,341,98.7068,-97.6486,0.954441,0.942306,2.68363,0.000182147,-0.140309
PART-1-1,342,98.7068,-97.6486,0.954441,0.942306,2.68363,-0.000182131,0.140309
PART-1-1,343,98.5138,-99.048,-0.626837,-0.512446,1.52326,-0.0382348,0.0535783
PART-1-1,344,98.5138,-99.048,-0.626837,-0.512446,1.52326,0.0382348,-0.0535783
PART-1-1,345,99.5061,-99.0717,0.397621,0.393255,1.60695,0.0538767,-0.0153555
PART-1-1,346,99.5061,-99.0717,0.397621,0.393255,1.60695,-0.0538767,0.0153555
PART-1-1,347,98.2863,-98.4288,-0.304399,-0.0732736,1.738,-0.0551345,-0.0400666
PART-1-1,348,98.2863,-98.4288,-0.304399,-0.0732736,1.738,0.0551345,0.0400666
PART-1-1,349,99.4654,-99.3106,0.166967,0.0736089,1.51051,0.0485091,0.0277912
PART-1-1,350,99.4654,-99.3106,0.166967,0.0736089,1.51051,-0.0485091,-0.0277912
PART-1-1,351,98.428,-98.372,-0.103425,0.136002,1.6091,-0.0399564,-0.0551417
PART-1-1,352,98.428,-98.372,-0.103425,0.136002,1.6091,0.0399564,0.0551417
PART-1-1,353,99.2942,-99.2937,-0.00435752,-0.0613513,1.483,0.0305599,0.0277967
PART-1-1,354,99.2942,-99.2937,-0.00435752,-0.0613513,1.483,-0.0305599,-0.0277967
PART-1-1,355,98.5855,-98.4181,0.0452876,0.220458,1.50138,-0.0228343,-0.0502352
PART-1-1,356,98.5855,-98.4181,0.0452876,0.220458,1.50138,0.0228343,0.0502352
PART-1-1,357,99.1669,-99.2519,-0.117805,-0.113499,1.42265,0.0156313,0.0221147
PART-1-1,358,99.1669,-99.2519,-0.117805,-0.113499,1.42265,-0.0156313,-0.0221147
PART-1-1,359,98.679,-98.4568,0.132068,0.251356,1.41278,-0.0102431,-0.0456209
PART-1-1,360,98.679,-98.4568,0.132068,0.251356,1.41278,0.0102431,0.0456209
PART-1-1,361,99.1058,-99.2283,-0.170337,-0.130454,1.35683,0.00498716,0.0189914
PART-1-1,362,99.1058,-99.2283,-0.170337,-0.130454,1.35683,-0.00498714,-0.0189914
PART-1-1,363,98.7092,-98.4727,0.16095,0.258651,1.3227,-0.000828346,-0.0440805
PART-1-1,364,98.7092,-98.4727,0.16095,0.258651,1.3227,0.000828363,0.0440805
PART-1-1,365,99.1054,-99.2293,-0.168282,-0.130169,1.29374,-0.00396398,0.019019
PART-1-1,366,99.1054,-99.2293,-0.168282,-0.130169,1.29374,0.003964,-0.019019
PART-1-1,367,98.6798,-98.4631,0.13625,0.250799,1.2314,0.00851914,-0.0456881
PART-1-1,368,98.6798,-98.4631,0.13625,0.250799,1.2314,-0.00851912,0.0456881
PART-1-1,369,99.1656,-99.2549,-0.11176,-0.112704,1.23033,-0.0144745,0.0222434
PART-1-1,370,99.1656,-99.2549,-0.11176,-0.112704,1.23033,0.0144745,-0.0222434
PART-1-1,371,98.5875,-98.4308,0.0540529,0.219473,1.1391,0.0209165,-0.0504602
PART-1-1,372,98.5875,-98.4308,0.0540529,0.219473,1.1391,-0.0209165,0.0504602
PART-1-1,373,99.2912,-99.2981,0.00466505,-0.0602602,1.17486,-0.0291671,0.0281554
PART-1-1,374,99.2912,-99.2981,0.00466505,-0.0602602,1.17486,0.0291672,-0.0281554
PART-1-1,375,98.4321,-98.3924,-0.0880636,0.134909,1.02542,0.0378211,-0.0556735
PART-1-1,376,98.4321,-98.3924,-0.0880636,0.134909,1.02542,-0.0378211,0.0556735
PART-1-1,377,99.4599,-99.3145,0.175929,0.0745467,1.1535,-0.0470461,0.0285063
PART-1-1,378,99.4599,-99.3145,0.175929,0.0745467,1.1535,0.0470461,-0.0285063
PART-1-1,379,98.2933,-98.4578,-0.279724,-0.0738731,0.891452,0.0533749,-0.0409211
PART-1-1,380,98.2933,-98.4578,-0.279724,-0.0738731,0.891452,-0.0533749,0.0409211
PART-1-1,381,99.4974,-99.0797,0.408344,0.393261,1.05846,-0.0536255,-0.0145297
PART-1-1,382,99.4974,-99.0797,0.408344,0.393261,1.05846,0.0536255,0.0145297
PART-1-1,383,98.5243,-99.0657,-0.609199,-0.511574,1.11235,0.0391944,0.053136
PART-1-1,384,98.5243,-99.0657,-0.609199,-0.511574,1.11235,-0.0391944,-0.053136
PART-1-1,385,98.6947,-97.7155,1.01752,0.940128,-0.0391037,-0.00376942,-0.140784
PART-1-1,386,98.6947,-97.7155,1.01752,0.940128,-0.0391037,0.00376943,0.140784
PART-1-1,387,99.6482,-100.857,-1.8231,-0.916016,3.23277,-0.0625002,0.163407
PART-1-1,388,99.6482,-100.857,-1.8231,-0.916016,3.23277,0.0625002,-0.163407
PART-1-1,389,99.6112,-97.4121,3.15827,0.931771,-2.99334,0.143059,0.0789005
PART-1-1,390,99.6112,-97.4121,3.15827,0.931771,-2.99334,-0.143059,-0.0789005
PART-1-1,391,101.35,-102.743,-5.00948,0.838049,6.13799,-0.22101,-0.561421
PART-1-1,392,101.35,-102.743,-5.00948,0.838049,6.13799,0.22101,0.561421
PART-1-1,393,93.7108,-90.0379,7.18941,-1.64944,-5.45175,0.140878,2.62034
PART-1-1,394,93.7108,-90.0379,7.18941,-1.64944,-5.45175,-0.140878,-2.62034
PART-1-1,395,53.1103,-35.9939,-3.79597,0.881469,-23.0266,0.0110556,-2.63593
PART-1-1,396,53.1103,-35.9939,-3.79597,0.881469,-23.0266,-0.0110556,2.63593
