# vtk DataFile Version 3.0
mesh
ASCII
DATASET UNSTRUCTURED_GRID
POINTS 612 float
50 3.8 0
50 3.8 5
50 -5 5
50 -5 0
-50 3.8 5
-50 -5 5
-50 -5 0
-50 3.8 0
50 4.1 5
50 4.1 0
50 4.4 0
50 4.4 5
-50 4.1 0
-50 4.4 0
-50 4.4 5
-50 4.1 5
50 3.8 2.5
50 0.866667 5
50 -2.06667 5
50 -5 2.5
50 -2.06667 0
50 0.866667 0
-50 3.8 2.5
-50 -2.06667 5
-50 0.866667 5
-50 -5 2.5
-50 0.866667 0
-50 -2.06667 0
46.9697 -5 0
43.9394 -5 0
40.9091 -5 0
37.8788 -5 0
34.8485 -5 0
31.8182 -5 0
28.7879 -5 0
25.7576 -5 0
22.7273 -5 0
19.697 -5 0
16.6667 -5 0
13.6364 -5 0
10.6061 -5 0
7.57576 -5 0
4.54545 -5 0
1.51515 -5 0
-1.51515 -5 0
-4.54545 -5 0
-7.57576 -5 0
-10.6061 -5 0
-13.6364 -5 0
-16.6667 -5 0
-19.697 -5 0
-22.7273 -5 0
-25.7576 -5 0
-28.7879 -5 0
-31.8182 -5 0
-34.8485 -5 0
-37.8788 -5 0
-40.9091 -5 0
-43.9394 -5 0
-46.9697 -5 0
-46.9697 3.8 0
-43.9394 3.8 0
-40.9091 3.8 0
-37.8788 3.8 0
-34.8485 3.8 0
-31.8182 3.8 0
-28.7879 3.8 0
-25.7576 3.8 0
-22.7273 3.8 0
-19.697 3.8 0
-16.6667 3.8 0
-13.6364 3.8 0
-10.6061 3.8 0
-7.57576 3.8 0
-4.54545 3.8 0
-1.51515 3.8 0
1.51515 3.8 0
4.54545 3.8 0
7.57576 3.8 0
10.6061 3.8 0
13.6364 3.8 0
16.6667 3.8 0
19.697 3.8 0
22.7273 3.8 0
25.7576 3.8 0
28.7879 3.8 0
31.8182 3.8 0
34.8485 3.8 0
37.8788 3.8 0
40.9091 3.8 0
43.9394 3.8 0
46.9697 3.8 0
-46.9697 -5 5
-43.9394 -5 5
-40.9091 -5 5
-37.8788 -5 5
-34.8485 -5 5
-31.8182 -5 5
-28.7879 -5 5
-25.7576 -5 5
-22.7273 -5 5
-19.697 -5 5
-16.6667 -5 5
-13.6364 -5 5
-10.6061 -5 5
-7.57576 -5 5
-4.54545 -5 5
-1.51515 -5 5
1.51515 -5 5
4.54545 -5 5
7.57576 -5 5
10.6061 -5 5
13.6364 -5 5
16.6667 -5 5
19.697 -5 5
22.7273 -5 5
25.7576 -5 5
28.7879 -5 5
31.8182 -5 5
34.8485 -5 5
37.8788 -5 5
40.9091 -5 5
43.9394 -5 5
46.9697 -5 5
46.9697 3.8 5
43.9394 3.8 5
40.9091 3.8 5
37.8788 3.8 5
34.8485 3.8 5
31.8182 3.8 5
28.7879 3.8 5
25.7576 3.8 5
22.7273 3.8 5
19.697 3.8 5
16.6667 3.8 5
13.6364 3.8 5
10.6061 3.8 5
7.57576 3.8 5
4.54545 3.8 5
1.51515 3.8 5
-1.51515 3.8 5
-4.54545 3.8 5
-7.57576 3.8 5
-10.6061 3.8 5
-13.6364 3.8 5
-16.6667 3.8 5
-19.697 3.8 5
-22.7273 3.8 5
-25.7576 3.8 5
-28.7879 3.8 5
-31.8182 3.8 5
-34.8485 3.8 5
-37.8788 3.8 5
-40.9091 3.8 5
-43.9394 3.8 5
-46.9697 3.8 5
50 4.1 2.5
50 4.4 2.5
-50 4.1 2.5
-50 4.4 2.5
46.9697 4.4 5
43.9394 4.4 5
40.9091 4.4 5
37.8788 4.4 5
34.8485 4.4 5
31.8182 4.4 5
28.7879 4.4 5
25.7576 4.4 5
22.7273 4.4 5
19.697 4.4 5
16.6667 4.4 5
13.6364 4.4 5
10.6061 4.4 5
7.57576 4.4 5
4.54545 4.4 5
1.51515 4.4 5
-1.51515 4.4 5
-4.54545 4.4 5
-7.57576 4.4 5
-10.6061 4.4 5
-13.6364 4.4 5
-16.6667 4.4 5
-19.697 4.4 5
-22.7273 4.4 5
-25.7576 4.4 5
-28.7879 4.4 5
-31.8182 4.4 5
-34.8485 4.4 5
-37.8788 4.4 5
-40.9091 4.4 5
-43.9394 4.4 5
-46.9697 4.4 5
-46.9697 4.1 5
-43.9394 4.1 5
-40.9091 4.1 5
-37.8788 4.1 5
-34.8485 4.1 5
-31.8182 4.1 5
-28.7879 4.1 5
-25.7576 4.1 5
-22.7273 4.1 5
-19.697 4.1 5
-16.6667 4.1 5
-13.6364 4.1 5
-10.6061 4.1 5
-7.57576 4.1 5
-4.54545 4.1 5
-1.51515 4.1 5
1.51515 4.1 5
4.54545 4.1 5
7.57576 4.1 5
10.6061 4.1 5
13.6364 4.1 5
16.6667 4.1 5
19.697 4.1 5
22.7273 4.1 5
25.7576 4.1 5
28.7879 4.1 5
31.8182 4.1 5
34.8485 4.1 5
37.8788 4.1 5
40.9091 4.1 5
43.9394 4.1 5
46.9697 4.1 5
-46.9697 4.4 0
-43.9394 4.4 0
-40.9091 4.4 0
-37.8788 4.4 0
-34.8485 4.4 0
-31.8182 4.4 0
-28.7879 4.4 0
-25.7576 4.4 0
-22.7273 4.4 0
-19.697 4.4 0
-16.6667 4.4 0
-13.6364 4.4 0
-10.6061 4.4 0
-7.57576 4.4 0
-4.54545 4.4 0
-1.51515 4.4 0
1.51515 4.4 0
4.54545 4.4 0
7.57576 4.4 0
10.6061 4.4 0
13.6364 4.4 0
16.6667 4.4 0
19.697 4.4 0
22.7273 4.4 0
25.7576 4.4 0
28.7879 4.4 0
31.8182 4.4 0
34.8485 4.4 0
37.8788 4.4 0
40.9091 4.4 0
43.9394 4.4 0
46.9697 4.4 0
46.9697 4.1 0
43.9394 4.1 0
40.9091 4.1 0
37.8788 4.1 0
34.8485 4.1 0
31.8182 4.1 0
28.7879 4.1 0
25.7576 4.1 0
22.7273 4.1 0
19.697 4.1 0
16.6667 4.1 0
13.6364 4.1 0
10.6061 4.1 0
7.57576 4.1 0
4.54545 4.1 0
1.51515 4.1 0
-1.51515 4.1 0
-4.54545 4.1 0
-7.57576 4.1 0
-10.6061 4.1 0
-13.6364 4.1 0
-16.6667 4.1 0
-19.697 4.1 0
-22.7273 4.1 0
-25.7576 4.1 0
-28.7879 4.1 0
-31.8182 4.1 0
-34.8485 4.1 0
-37.8788 4.1 0
-40.9091 4.1 0
-43.9394 4.1 0
-46.9697 4.1 0
50 0.866667 2.5
50 -2.06667 2.5
-50 0.866667 2.5
-50 -2.06667 2.5
46.9697 0.866667 0
46.9697 -2.06667 0
43.9394 0.866667 0
43.9394 -2.06667 0
40.9091 0.866667 0
40.9091 -2.06667 0
37.8788 0.866667 0
37.8788 -2.06667 0
34.8485 0.866667 0
34.8485 -2.06667 0
31.8182 0.866667 0
31.8182 -2.06667 0
28.7879 0.866667 0
28.7879 -2.06667 0
25.7576 0.866667 0
25.7576 -2.06667 0
22.7273 0.866667 0
22.7273 -2.06667 0
19.697 0.866667 0
19.697 -2.06667 0
16.6667 0.866667 0
16.6667 -2.06667 0
13.6364 0.866667 0
13.6364 -2.06667 0
10.6061 0.866667 0
10.6061 -2.06667 0
7.57576 0.866667 0
7.57576 -2.06667 0
4.54545 0.866667 0
4.54545 -2.06667 0
1.51515 0.866667 0
1.51515 -2.06667 0
-1.51515 0.866667 0
-1.51515 -2.06667 0
-4.54545 0.866667 0
-4.54545 -2.06667 0
-7.57576 0.866667 0
-7.57576 -2.06667 0
-10.6061 0.866667 0
-10.6061 -2.06667 0
-13.6364 0.866667 0
-13.6364 -2.06667 0
-16.6667 0.866667 0
-16.6667 -2.06667 0
-19.697 0.866667 0
-19.697 -2.06667 0
-22.7273 0.866667 0
-22.7273 -2.06667 0
-25.7576 0.866667 0
-25.7576 -2.06667 0
-28.7879 0.866667 0
-28.7879 -2.06667 0
-31.8182 0.866667 0
-31.8182 -2.06667 0
-34.8485 0.866667 0
-34.8485 -2.06667 0
-37.8788 0.866667 0
-37.8788 -2.06667 0
-40.9091 0.866667 0
-40.9091 -2.06667 0
-43.9394 0.866667 0
-43.9394 -2.06667 0
-46.9697 0.866667 0
-46.9697 -2.06667 0
46.9697 0.866667 5
46.9697 -2.06667 5
43.9394 0.866667 5
43.9394 -2.06667 5
40.9091 0.866667 5
40.9091 -2.06667 5
37.8788 0.866667 5
37.8788 -2.06667 5
34.8485 0.866667 5
34.8485 -2.06667 5
31.8182 0.866667 5
31.8182 -2.06667 5
28.7879 0.866667 5
28.7879 -2.06667 5
25.7576 0.866667 5
25.7576 -2.06667 5
22.7273 0.866667 5
22.7273 -2.06667 5
19.697 0.866667 5
19.697 -2.06667 5
16.6667 0.866667 5
16.6667 -2.06667 5
13.6364 0.866667 5
13.6364 -2.06667 5
10.6061 0.866667 5
10.6061 -2.06667 5
7.57576 0.866667 5
7.57576 -2.06667 5
4.54545 0.866667 5
4.54545 -2.06667 5
1.51515 0.866667 5
1.51515 -2.06667 5
-1.51515 0.866667 5
-1.51515 -2.06667 5
-4.54545 0.866667 5
-4.54545 -2.06667 5
-7.57576 0.866667 5
-7.57576 -2.06667 5
-10.6061 0.866667 5
-10.6061 -2.06667 5
-13.6364 0.866667 5
-13.6364 -2.06667 5
-16.6667 0.866667 5
-16.6667 -2.06667 5
-19.697 0.866667 5
-19.697 -2.06667 5
-22.7273 0.866667 5
-22.7273 -2.06667 5
-25.7576 0.866667 5
-25.7576 -2.06667 5
-28.7879 0.866667 5
-28.7879 -2.06667 5
-31.8182 0.866667 5
-31.8182 -2.06667 5
-34.8485 0.866667 5
-34.8485 -2.06667 5
-37.8788 0.866667 5
-37.8788 -2.06667 5
-40.9091 0.866667 5
-40.9091 -2.06667 5
-43.9394 0.866667 5
-43.9394 -2.06667 5
-46.9697 0.866667 5
-46.9697 -2.06667 5
46.9697 3.8 2.5
43.9394 3.8 2.5
40.9091 3.8 2.5
37.8788 3.8 2.5
34.8485 3.8 2.5
31.8182 3.8 2.5
28.7879 3.8 2.5
25.7576 3.8 2.5
22.7273 3.8 2.5
19.697 3.8 2.5
16.6667 3.8 2.5
13.6364 3.8 2.5
10.6061 3.8 2.5
7.57576 3.8 2.5
4.54545 3.8 2.5
1.51515 3.8 2.5
-1.51515 3.8 2.5
-4.54545 3.8 2.5
-7.57576 3.8 2.5
-10.6061 3.8 2.5
-13.6364 3.8 2.5
-16.6667 3.8 2.5
-19.697 3.8 2.5
-22.7273 3.8 2.5
-25.7576 3.8 2.5
-28.7879 3.8 2.5
-31.8182 3.8 2.5
-34.8485 3.8 2.5
-37.8788 3.8 2.5
-40.9091 3.8 2.5
-43.9394 3.8 2.5
-46.9697 3.8 2.5
46.9697 -5 2.5
43.9394 -5 2.5
40.9091 -5 2.5
37.8788 -5 2.5
34.8485 -5 2.5
31.8182 -5 2.5
28.7879 -5 2.5
25.7576 -5 2.5
22.7273 -5 2.5
19.697 -5 2.5
16.6667 -5 2.5
13.6364 -5 2.5
10.6061 -5 2.5
7.57576 -5 2.5
4.54545 -5 2.5
1.51515 -5 2.5
-1.51515 -5 2.5
-4.54545 -5 2.5
-7.57576 -5 2.5
-10.6061 -5 2.5
-13.6364 -5 2.5
-16.6667 -5 2.5
-19.697 -5 2.5
-22.7273 -5 2.5
-25.7576 -5 2.5
-28.7879 -5 2.5
-31.8182 -5 2.5
-34.8485 -5 2.5
-37.8788 -5 2.5
-40.9091 -5 2.5
-43.9394 -5 2.5
-46.9697 -5 2.5
46.9697 4.1 2.5
43.9394 4.1 2.5
40.9091 4.1 2.5
37.8788 4.1 2.5
34.8485 4.1 2.5
31.8182 4.1 2.5
28.7879 4.1 2.5
25.7576 4.1 2.5
22.7273 4.1 2.5
19.697 4.1 2.5
16.6667 4.1 2.5
13.6364 4.1 2.5
10.6061 4.1 2.5
7.57576 4.1 2.5
4.54545 4.1 2.5
1.51515 4.1 2.5
-1.51515 4.1 2.5
-4.54545 4.1 2.5
-7.57576 4.1 2.5
-10.6061 4.1 2.5
-13.6364 4.1 2.5
-16.6667 4.1 2.5
-19.697 4.1 2.5
-22.7273 4.1 2.5
-25.7576 4.1 2.5
-28.7879 4.1 2.5
-31.8182 4.1 2.5
-34.8485 4.1 2.5
-37.8788 4.1 2.5
-40.9091 4.1 2.5
-43.9394 4.1 2.5
-46.9697 4.1 2.5
46.9697 4.4 2.5
43.9394 4.4 2.5
40.9091 4.4 2.5
37.8788 4.4 2.5
34.8485 4.4 2.5
31.8182 4.4 2.5
28.7879 4.4 2.5
25.7576 4.4 2.5
22.7273 4.4 2.5
19.697 4.4 2.5
16.6667 4.4 2.5
13.6364 4.4 2.5
10.6061 4.4 2.5
7.57576 4.4 2.5
4.54545 4.4 2.5
1.51515 4.4 2.5
-1.51515 4.4 2.5
-4.54545 4.4 2.5
-7.57576 4.4 2.5
-10.6061 4.4 2.5
-13.6364 4.4 2.5
-16.6667 4.4 2.5
-19.697 4.4 2.5
-22.7273 4.4 2.5
-25.7576 4.4 2.5
-28.7879 4.4 2.5
-31.8182 4.4 2.5
-34.8485 4.4 2.5
-37.8788 4.4 2.5
-40.9091 4.4 2.5
-43.9394 4.4 2.5
-46.9697 4.4 2.5
46.9697 0.866667 2.5
46.9697 -2.06667 2.5
43.9394 0.866667 2.5
43.9394 -2.06667 2.5
40.9091 0.866667 2.5
40.9091 -2.06667 2.5
37.8788 0.866667 2.5
37.8788 -2.06667 2.5
34.8485 0.866667 2.5
34.8485 -2.06667 2.5
31.8182 0.866667 2.5
31.8182 -2.06667 2.5
28.7879 0.866667 2.5
28.7879 -2.06667 2.5
25.7576 0.866667 2.5
25.7576 -2.06667 2.5
22.7273 0.866667 2.5
22.7273 -2.06667 2.5
19.697 0.866667 2.5
19.697 -2.06667 2.5
16.6667 0.866667 2.5
16.6667 -2.06667 2.5
13.6364 0.866667 2.5
13.6364 -2.06667 2.5
10.6061 0.866667 2.5
10.6061 -2.06667 2.5
7.57576 0.866667 2.5
7.57576 -2.06667 2.5
4.54545 0.866667 2.5
4.54545 -2.06667 2.5
1.51515 0.866667 2.5
1.51515 -2.06667 2.5
-1.51515 0.866667 2.5
-1.51515 -2.06667 2.5
-4.54545 0.866667 2.5
-4.54545 -2.06667 2.5
-7.57576 0.866667 2.5
-7.57576 -2.06667 2.5
-10.6061 0.866667 2.5
-10.6061 -2.06667 2.5
-13.6364 0.866667 2.5
-13.6364 -2.06667 2.5
-16.6667 0.866667 2.5
-16.6667 -2.06667 2.5
-19.697 0.866667 2.5
-19.697 -2.06667 2.5
-22.7273 0.866667 2.5
-22.7273 -2.06667 2.5
-25.7576 0.866667 2.5
-25.7576 -2.06667 2.5
-28.7879 0.866667 2.5
-28.7879 -2.06667 2.5
-31.8182 0.866667 2.5
-31.8182 -2.06667 2.5
-34.8485 0.866667 2.5
-34.8485 -2.06667 2.5
-37.8788 0.866667 2.5
-37.8788 -2.06667 2.5
-40.9091 0.866667 2.5
-40.9091 -2.06667 2.5
-43.9394 0.866667 2.5
-43.9394 -2.06667 2.5
-46.9697 0.866667 2.5
-46.9697 -2.06667 2.5
CELLS 330 2970
8 91 420 548 292 0 16 288 21
8 420 124 356 548 16 1 17 288
8 292 548 549 293 21 288 289 20
8 548 356 357 549 288 17 18 289
8 293 549 452 28 20 289 19 3
8 549 357 123 452 289 18 2 19
8 90 421 550 294 91 420 548 292
8 421 125 358 550 420 124 356 548
8 294 550 551 295 292 548 549 293
8 550 358 359 551 548 356 357 549
8 295 551 453 29 293 549 452 28
8 551 359 122 453 549 357 123 452
8 89 422 552 296 90 421 550 294
8 422 126 360 552 421 125 358 550
8 296 552 553 297 294 550 551 295
8 552 360 361 553 550 358 359 551
8 297 553 454 30 295 551 453 29
8 553 361 121 454 551 359 122 453
8 88 423 554 298 89 422 552 296
8 423 127 362 554 422 126 360 552
8 298 554 555 299 296 552 553 297
8 554 362 363 555 552 360 361 553
8 299 555 455 31 297 553 454 30
8 555 363 120 455 553 361 121 454
8 87 424 556 300 88 423 554 298
8 424 128 364 556 423 127 362 554
8 300 556 557 301 298 554 555 299
8 556 364 365 557 554 362 363 555
8 301 557 456 32 299 555 455 31
8 557 365 119 456 555 363 120 455
8 86 425 558 302 87 424 556 300
8 425 129 366 558 424 128 364 556
8 302 558 559 303 300 556 557 301
8 558 366 367 559 556 364 365 557
8 303 559 457 33 301 557 456 32
8 559 367 118 457 557 365 119 456
8 85 426 560 304 86 425 558 302
8 426 130 368 560 425 129 366 558
8 304 560 561 305 302 558 559 303
8 560 368 369 561 558 366 367 559
8 305 561 458 34 303 559 457 33
8 561 369 117 458 559 367 118 457
8 84 427 562 306 85 426 560 304
8 427 131 370 562 426 130 368 560
8 306 562 563 307 304 560 561 305
8 562 370 371 563 560 368 369 561
8 307 563 459 35 305 561 458 34
8 563 371 116 459 561 369 117 458
8 83 428 564 308 84 427 562 306
8 428 132 372 564 427 131 370 562
8 308 564 565 309 306 562 563 307
8 564 372 373 565 562 370 371 563
8 309 565 460 36 307 563 459 35
8 565 373 115 460 563 371 116 459
8 82 429 566 310 83 428 564 308
8 429 133 374 566 428 132 372 564
8 310 566 567 311 308 564 565 309
8 566 374 375 567 564 372 373 565
8 311 567 461 37 309 565 460 36
8 567 375 114 461 565 373 115 460
8 81 430 568 312 82 429 566 310
8 430 134 376 568 429 133 374 566
8 312 568 569 313 310 566 567 311
8 568 376 377 569 566 374 375 567
8 313 569 462 38 311 567 461 37
8 569 377 113 462 567 375 114 461
8 80 431 570 314 81 430 568 312
8 431 135 378 570 430 134 376 568
8 314 570 571 315 312 568 569 313
8 570 378 379 571 568 376 377 569
8 315 571 463 39 313 569 462 38
8 571 379 112 463 569 377 113 462
8 79 432 572 316 80 431 570 314
8 432 136 380 572 431 135 378 570
8 316 572 573 317 314 570 571 315
8 572 380 381 573 570 378 379 571
8 317 573 464 40 315 571 463 39
8 573 381 111 464 571 379 112 463
8 78 433 574 318 79 432 572 316
8 433 137 382 574 432 136 380 572
8 318 574 575 319 316 572 573 317
8 574 382 383 575 572 380 381 573
8 319 575 465 41 317 573 464 40
8 575 383 110 465 573 381 111 464
8 77 434 576 320 78 433 574 318
8 434 138 384 576 433 137 382 574
8 320 576 577 321 318 574 575 319
8 576 384 385 577 574 382 383 575
8 321 577 466 42 319 575 465 41
8 577 385 109 466 575 383 110 465
8 76 435 578 322 77 434 576 320
8 435 139 386 578 434 138 384 576
8 322 578 579 323 320 576 577 321
8 578 386 387 579 576 384 385 577
8 323 579 467 43 321 577 466 42
8 579 387 108 467 577 385 109 466
8 75 436 580 324 76 435 578 322
8 436 140 388 580 435 139 386 578
8 324 580 581 325 322 578 579 323
8 580 388 389 581 578 386 387 579
8 325 581 468 44 323 579 467 43
8 581 389 107 468 579 387 108 467
8 74 437 582 326 75 436 580 324
8 437 141 390 582 436 140 388 580
8 326 582 583 327 324 580 581 325
8 582 390 391 583 580 388 389 581
8 327 583 469 45 325 581 468 44
8 583 391 106 469 581 389 107 468
8 73 438 584 328 74 437 582 326
8 438 142 392 584 437 141 390 582
8 328 584 585 329 326 582 583 327
8 584 392 393 585 582 390 391 583
8 329 585 470 46 327 583 469 45
8 585 393 105 470 583 391 106 469
8 72 439 586 330 73 438 584 328
8 439 143 394 586 438 142 392 584
8 330 586 587 331 328 584 585 329
8 586 394 395 587 584 392 393 585
8 331 587 471 47 329 585 470 46
8 587 395 104 471 585 393 105 470
8 71 440 588 332 72 439 586 330
8 440 144 396 588 439 143 394 586
8 332 588 589 333 330 586 587 331
8 588 396 397 589 586 394 395 587
8 333 589 472 48 331 587 471 47
8 589 397 103 472 587 395 104 471
8 70 441 590 334 71 440 588 332
8 441 145 398 590 440 144 396 588
8 334 590 591 335 332 588 589 333
8 590 398 399 591 588 396 397 589
8 335 591 473 49 333 589 472 48
8 591 399 102 473 589 397 103 472
8 69 442 592 336 70 441 590 334
8 442 146 400 592 441 145 398 590
8 336 592 593 337 334 590 591 335
8 592 400 401 593 590 398 399 591
8 337 593 474 50 335 591 473 49
8 593 401 101 474 591 399 102 473
8 68 443 594 338 69 442 592 336
8 443 147 402 594 442 146 400 592
8 338 594 595 339 336 592 593 337
8 594 402 403 595 592 400 401 593
8 339 595 475 51 337 593 474 50
8 595 403 100 475 593 401 101 474
8 67 444 596 340 68 443 594 338
8 444 148 404 596 443 147 402 594
8 340 596 597 341 338 594 595 339
8 596 404 405 597 594 402 403 595
8 341 597 476 52 339 595 475 51
8 597 405 99 476 595 403 100 475
8 66 445 598 342 67 444 596 340
8 445 149 406 598 444 148 404 596
8 342 598 599 343 340 596 597 341
8 598 406 407 599 596 404 405 597
8 343 599 477 53 341 597 476 52
8 599 407 98 477 597 405 99 476
8 65 446 600 344 66 445 598 342
8 446 150 408 600 445 149 406 598
8 344 600 601 345 342 598 599 343
8 600 408 409 601 598 406 407 599
8 345 601 478 54 343 599 477 53
8 601 409 97 478 599 407 98 477
8 64 447 602 346 65 446 600 344
8 447 151 410 602 446 150 408 600
8 346 602 603 347 344 600 601 345
8 602 410 411 603 600 408 409 601
8 347 603 479 55 345 601 478 54
8 603 411 96 479 601 409 97 478
8 63 448 604 348 64 447 602 346
8 448 152 412 604 447 151 410 602
8 348 604 605 349 346 602 603 347
8 604 412 413 605 602 410 411 603
8 349 605 480 56 347 603 479 55
8 605 413 95 480 603 411 96 479
8 62 449 606 350 63 448 604 348
8 449 153 414 606 448 152 412 604
8 350 606 607 351 348 604 605 349
8 606 414 415 607 604 412 413 605
8 351 607 481 57 349 605 480 56
8 607 415 94 481 605 413 95 480
8 61 450 608 352 62 449 606 350
8 450 154 416 608 449 153 414 606
8 352 608 609 353 350 606 607 351
8 608 416 417 609 606 414 415 607
8 353 609 482 58 351 607 481 57
8 609 417 93 482 607 415 94 481
8 60 451 610 354 61 450 608 352
8 451 155 418 610 450 154 416 608
8 354 610 611 355 352 608 609 353
8 610 418 419 611 608 416 417 609
8 355 611 483 59 353 609 482 58
8 611 419 92 483 609 417 93 482
8 7 22 290 26 60 451 610 354
8 22 4 24 290 451 155 418 610
8 26 290 291 27 354 610 611 355
8 290 24 23 291 610 418 419 611
8 27 291 25 6 355 611 483 59
8 291 23 5 25 611 419 92 483
8 223 484 516 160 8 156 157 11
8 484 256 255 516 156 9 10 157
8 222 485 517 161 223 484 516 160
8 485 257 254 517 484 256 255 516
8 221 486 518 162 222 485 517 161
8 486 258 253 518 485 257 254 517
8 220 487 519 163 221 486 518 162
8 487 259 252 519 486 258 253 518
8 219 488 520 164 220 487 519 163
8 488 260 251 520 487 259 252 519
8 218 489 521 165 219 488 520 164
8 489 261 250 521 488 260 251 520
8 217 490 522 166 218 489 521 165
8 490 262 249 522 489 261 250 521
8 216 491 523 167 217 490 522 166
8 491 263 248 523 490 262 249 522
8 215 492 524 168 216 491 523 167
8 492 264 247 524 491 263 248 523
8 214 493 525 169 215 492 524 168
8 493 265 246 525 492 264 247 524
8 213 494 526 170 214 493 525 169
8 494 266 245 526 493 265 246 525
8 212 495 527 171 213 494 526 170
8 495 267 244 527 494 266 245 526
8 211 496 528 172 212 495 527 171
8 496 268 243 528 495 267 244 527
8 210 497 529 173 211 496 528 172
8 497 269 242 529 496 268 243 528
8 209 498 530 174 210 497 529 173
8 498 270 241 530 497 269 242 529
8 208 499 531 175 209 498 530 174
8 499 271 240 531 498 270 241 530
8 207 500 532 176 208 499 531 175
8 500 272 239 532 499 271 240 531
8 206 501 533 177 207 500 532 176
8 501 273 238 533 500 272 239 532
8 205 502 534 178 206 501 533 177
8 502 274 237 534 501 273 238 533
8 204 503 535 179 205 502 534 178
8 503 275 236 535 502 274 237 534
8 203 504 536 180 204 503 535 179
8 504 276 235 536 503 275 236 535
8 202 505 537 181 203 504 536 180
8 505 277 234 537 504 276 235 536
8 201 506 538 182 202 505 537 181
8 506 278 233 538 505 277 234 537
8 200 507 539 183 201 506 538 182
8 507 279 232 539 506 278 233 538
8 199 508 540 184 200 507 539 183
8 508 280 231 540 507 279 232 539
8 198 509 541 185 199 508 540 184
8 509 281 230 541 508 280 231 540
8 197 510 542 186 198 509 541 185
8 510 282 229 542 509 281 230 541
8 196 511 543 187 197 510 542 186
8 511 283 228 543 510 282 229 542
8 195 512 544 188 196 511 543 187
8 512 284 227 544 511 283 228 543
8 194 513 545 189 195 512 544 188
8 513 285 226 545 512 284 227 544
8 193 514 546 190 194 513 545 189
8 514 286 225 546 513 285 226 545
8 192 515 547 191 193 514 546 190
8 515 287 224 547 514 286 225 546
8 15 158 159 14 192 515 547 191
8 158 12 13 159 515 287 224 547
8 124 420 484 223 1 16 156 8
8 420 91 256 484 16 0 9 156
8 125 421 485 222 124 420 484 223
8 421 90 257 485 420 91 256 484
8 126 422 486 221 125 421 485 222
8 422 89 258 486 421 90 257 485
8 127 423 487 220 126 422 486 221
8 423 88 259 487 422 89 258 486
8 128 424 488 219 127 423 487 220
8 424 87 260 488 423 88 259 487
8 129 425 489 218 128 424 488 219
8 425 86 261 489 424 87 260 488
8 130 426 490 217 129 425 489 218
8 426 85 262 490 425 86 261 489
8 131 427 491 216 130 426 490 217
8 427 84 263 491 426 85 262 490
8 132 428 492 215 131 427 491 216
8 428 83 264 492 427 84 263 491
8 133 429 493 214 132 428 492 215
8 429 82 265 493 428 83 264 492
8 134 430 494 213 133 429 493 214
8 430 81 266 494 429 82 265 493
8 135 431 495 212 134 430 494 213
8 431 80 267 495 430 81 266 494
8 136 432 496 211 135 431 495 212
8 432 79 268 496 431 80 267 495
8 137 433 497 210 136 432 496 211
8 433 78 269 497 432 79 268 496
8 138 434 498 209 137 433 497 210
8 434 77 270 498 433 78 269 497
8 139 435 499 208 138 434 498 209
8 435 76 271 499 434 77 270 498
8 140 436 500 207 139 435 499 208
8 436 75 272 500 435 76 271 499
8 141 437 501 206 140 436 500 207
8 437 74 273 501 436 75 272 500
8 142 438 502 205 141 437 501 206
8 438 73 274 502 437 74 273 501
8 143 439 503 204 142 438 502 205
8 439 72 275 503 438 73 274 502
8 144 440 504 203 143 439 503 204
8 440 71 276 504 439 72 275 503
8 145 441 505 202 144 440 504 203
8 441 70 277 505 440 71 276 504
8 146 442 506 201 145 441 505 202
8 442 69 278 506 441 70 277 505
8 147 443 507 200 146 442 506 201
8 443 68 279 507 442 69 278 506
8 148 444 508 199 147 443 507 200
8 444 67 280 508 443 68 279 507
8 149 445 509 198 148 444 508 199
8 445 66 281 509 444 67 280 508
8 150 446 510 197 149 445 509 198
8 446 65 282 510 445 66 281 509
8 151 447 511 196 150 446 510 197
8 447 64 283 511 446 65 282 510
8 152 448 512 195 151 447 511 196
8 448 63 284 512 447 64 283 511
8 153 449 513 194 152 448 512 195
8 449 62 285 513 448 63 284 512
8 154 450 514 193 153 449 513 194
8 450 61 286 514 449 62 285 513
8 155 451 515 192 154 450 514 193
8 451 60 287 515 450 61 286 514
8 4 22 158 15 155 451 515 192
8 22 7 12 158 451 60 287 515
CELL_TYPES 330
12
12
12
12
12
12
12
12
12
12
12
12
12
12
12
12
12
12
12
12
12
12
12
12
12
12
12
12
12
12
12
12
12
12
12
12
12
12
12
12
12
12
12
12
12
12
12
12
12
12
12
12
12
12
12
12
12
12
12
12
12
12
12
12
12
12
12
12
12
12
12
12
12
12
12
12
12
12
12
12
12
12
12
12
12
12
12
12
12
12
12
12
12
12
12
12
12
12
12
12
12
12
12
12
12
12
12
12
12
12
12
12
12
12
12
12
12
12
12
12
12
12
12
12
12
12
12
12
12
12
12
12
12
12
12
12
12
12
12
12
12
12
12
12
12
12
12
12
12
12
12
12
12
12
12
12
12
12
12
12
12
12
12
12
12
12
12
12
12
12
12
12
12
12
12
12
12
12
12
12
12
12
12
12
12
12
12
12
12
12
12
12
12
12
12
12
12
12
12
12
12
12
12
12
12
12
12
12
12
12
12
12
12
12
12
12
12
12
12
12
12
12
12
12
12
12
12
12
12
12
12
12
12
12
12
12
12
12
12
12
12
12
12
12
12
12
12
12
12
12
12
12
12
12
12
12
12
12
12
12
12
12
12
12
12
12
12
12
12
12
12
12
12
12
12
12
12
12
12
12
12
12
12
12
12
12
12
12
12
12
12
12
12
12
12
12
12
12
12
12
12
12
12
12
12
12
12
12
12
12
12
12
12
12
12
12
12
12
12
12
12
12
12
12
12
12
12
12
12
12
CELL_DATA 330
SCALARS von_mises float 1
LOOKUP_TABLE default
59.9359
59.9359
36.6665
36.6665
9.1756
9.1756
74.7719
74.7719
26.5009
26.5009
29.255
29.255
90.0588
90.0588
19.2513
19.2513
44.5743
44.5743
82.0322
82.0322
28.8985
28.8985
39.4806
39.4806
87.2418
87.2418
23.1885
23.1885
38.7038
38.7038
84.6743
84.6743
23.5856
23.5856
38.3431
38.3431
85.3131
85.3131
23.3122
23.3122
38.4528
38.4528
85.0581
85.0581
23.4235
23.4235
38.4924
38.4924
85.2778
85.2778
23.3797
23.3797
38.4437
38.4437
85.0954
85.0954
23.4854
23.4854
38.5366
38.5366
85.2384
85.2384
23.351
23.351
38.4024
38.4024
85.1352
85.1352
23.483
23.483
38.5564
38.5564
85.2045
85.2045
23.3612
23.3612
38.3962
38.3962
85.1585
85.1585
23.4711
23.4711
38.5543
38.5543
85.1906
85.1906
23.3715
23.3715
38.402
38.402
85.1658
85.1658
23.4639
23.4639
38.5485
38.5485
85.1875
85.1875
23.3752
23.3752
38.4054
38.4054
85.1658
85.1658
23.4638
23.4638
38.5485
38.5485
85.1905
85.1905
23.3715
23.3715
38.4019
38.4019
85.1586
85.1586
23.471
23.471
38.5544
38.5544
85.2043
85.2043
23.3612
23.3612
38.3961
38.3961
85.1354
85.1354
23.4829
23.4829
38.5565
38.5565
85.2382
85.2382
23.3511
23.3511
38.4024
38.4024
85.0957
85.0957
23.4851
23.4851
38.5366
38.5366
85.2775
85.2775
23.38
23.38
38.4439
38.4439
85.0583
85.0583
23.4228
23.4228
38.4919
38.4919
85.313
85.313
23.3129
23.3129
38.4535
38.4535
84.6738
84.6738
23.5845
23.5845
38.3415
38.3415
87.2428
87.2428
23.1897
23.1897
38.706
38.706
82.0311
82.0311
28.8983
28.8983
39.4778
39.4778
90.0573
90.0573
19.2536
19.2536
44.5798
44.5798
74.7783
74.7783
26.5034
26.5034
29.255
29.255
59.9329
59.9329
36.668
36.668
9.1734
9.1734
83.4583
83.4583
133.821
133.821
142.607
142.607
148.156
148.156
145.224
145.224
144.023
144.023
144.946
144.946
144.086
144.086
145.033
145.033
144.112
144.112
144.986
144.986
144.153
144.153
144.945
144.945
144.187
144.187
144.918
144.918
144.205
144.205
144.909
144.909
144.205
144.205
144.918
144.918
144.187
144.187
144.945
144.945
144.153
144.153
144.986
144.986
144.111
144.111
145.034
145.034
144.084
144.084
144.95
144.95
144.016
144.016
145.234
145.234
148.143
148.143
142.619
142.619
133.816
133.816
83.4639
83.4639
77.5729
77.5729
54.6167
54.6167
26.9692
26.9692
35.6151
35.6151
31.3984
31.3984
30.0788
30.0788
31.3936
31.3936
30.5892
30.5892
30.9196
30.9196
30.981
30.981
30.6715
30.6715
31.1172
31.1172
30.5995
30.5995
31.1517
31.1517
30.5853
30.5853
31.1558
31.1558
30.5844
30.5844
31.1561
31.1561
30.5847
30.5847
31.1525
31.1525
30.5984
30.5984
31.1182
31.1182
30.6705
30.6705
30.9814
30.9814
30.9198
30.9198
30.5874
30.5874
31.3972
31.3972
30.0723
30.0723
31.4073
31.4073
35.6081
35.6081
26.9758
26.9758
54.6368
54.6368
77.5847
77.5847
