# vtk DataFile Version 3.0
mesh
ASCII
DATASET UNSTRUCTURED_GRID
POINTS 420 float
-50 9.6 5
-50 16 5
-65 16 5
-65 9.6 5
-50 16 0
-65 16 0
-65 9.6 0
-50 9.6 0
-80 9.6 0
-80 16 0
-80 9.6 5
-80 16 5
5 -3.2 5
5 3.2 5
0 3.2 5
0 -3.2 5
5 3.2 0
0 3.2 0
0 -3.2 0
5 -3.2 0
-80 3.2 5
-80 -3.2 5
-80 3.2 0
-80 -3.2 0
80 -9.6 0
80 -9.6 5
80 -16 5
80 -16 0
-80 -9.6 5
-80 -16 5
-80 -16 0
-80 -9.6 0
80 -3.2 5
80 -3.2 0
80 3.2 0
80 3.2 5
80 9.6 5
80 9.6 0
80 16 0
80 16 5
-53.75 16 5
-57.5 16 5
-61.25 16 5
-61.25 9.6 5
-57.5 9.6 5
-53.75 9.6 5
-61.25 16 0
-57.5 16 0
-53.75 16 0
-53.75 9.6 0
-57.5 9.6 0
-61.25 9.6 0
-70 9.6 0
-75 9.6 0
-75 16 0
-70 16 0
-75 9.6 5
-70 9.6 5
-70 16 5
-75 16 5
-4.70588 3.2 5
-9.41177 3.2 5
-14.1176 3.2 5
-18.8235 3.2 5
-23.5294 3.2 5
-28.2353 3.2 5
-32.9412 3.2 5
-37.6471 3.2 5
-42.3529 3.2 5
-47.0588 3.2 5
-51.7647 3.2 5
-56.4706 3.2 5
-61.1765 3.2 5
-65.8824 3.2 5
-70.5882 3.2 5
-75.2941 3.2 5
-75.2941 -3.2 5
-70.5882 -3.2 5
-65.8824 -3.2 5
-61.1765 -3.2 5
-56.4706 -3.2 5
-51.7647 -3.2 5
-47.0588 -3.2 5
-42.3529 -3.2 5
-37.6471 -3.2 5
-32.9412 -3.2 5
-28.2353 -3.2 5
-23.5294 -3.2 5
-18.8235 -3.2 5
-14.1176 -3.2 5
-9.41177 -3.2 5
-4.70588 -3.2 5
-75.2941 3.2 0
-70.5882 3.2 0
-65.8824 3.2 0
-61.1765 3.2 0
-56.4706 3.2 0
-51.7647 3.2 0
-47.0588 3.2 0
-42.3529 3.2 0
-37.6471 3.2 0
-32.9412 3.2 0
-28.2353 3.2 0
-23.5294 3.2 0
-18.8235 3.2 0
-14.1176 3.2 0
-9.41177 3.2 0
-4.70588 3.2 0
-4.70588 -3.2 0
-9.41177 -3.2 0
-14.1176 -3.2 0
-18.8235 -3.2 0
-23.5294 -3.2 0
-28.2353 -3.2 0
-32.9412 -3.2 0
-37.6471 -3.2 0
-42.3529 -3.2 0
-47.0588 -3.2 0
-51.7647 -3.2 0
-56.4706 -3.2 0
-61.1765 -3.2 0
-65.8824 -3.2 0
-70.5882 -3.2 0
-75.2941 -3.2 0
75.2941 -16 0
70.5882 -16 0
65.8824 -16 0
61.1765 -16 0
56.4706 -16 0
51.7647 -16 0
47.0588 -16 0
42.3529 -16 0
37.6471 -16 0
32.9412 -16 0
28.2353 -16 0
23.5294 -16 0
18.8235 -16 0
14.1176 -16 0
9.41177 -16 0
4.70588 -16 0
0 -16 0
-4.70588 -16 0
-9.41177 -16 0
-14.1176 -16 0
-18.8235 -16 0
-23.5294 -16 0
-28.2353 -16 0
-32.9412 -16 0
-37.6471 -16 0
-42.3529 -16 0
-47.0588 -16 0
-51.7647 -16 0
-56.4706 -16 0
-61.1765 -16 0
-65.8824 -16 0
-70.5882 -16 0
-75.2941 -16 0
-75.2941 -9.6 0
-70.5882 -9.6 0
-65.8824 -9.6 0
-61.1765 -9.6 0
-56.4706 -9.6 0
-51.7647 -9.6 0
-47.0588 -9.6 0
-42.3529 -9.6 0
-37.6471 -9.6 0
-32.9412 -9.6 0
-28.2353 -9.6 0
-23.5294 -9.6 0
-18.8235 -9.6 0
-14.1176 -9.6 0
-9.41177 -9.6 0
-4.70588 -9.6 0
0 -9.6 0
4.70588 -9.6 0
9.41177 -9.6 0
14.1176 -9.6 0
18.8235 -9.6 0
23.5294 -9.6 0
28.2353 -9.6 0
32.9412 -9.6 0
37.6471 -9.6 0
42.3529 -9.6 0
47.0588 -9.6 0
51.7647 -9.6 0
56.4706 -9.6 0
61.1765 -9.6 0
65.8824 -9.6 0
70.5882 -9.6 0
75.2941 -9.6 0
-75.2941 -16 5
-70.5882 -16 5
-65.8824 -16 5
-61.1765 -16 5
-56.4706 -16 5
-51.7647 -16 5
-47.0588 -16 5
-42.3529 -16 5
-37.6471 -16 5
-32.9412 -16 5
-28.2353 -16 5
-23.5294 -16 5
-18.8235 -16 5
-14.1176 -16 5
-9.41177 -16 5
-4.70588 -16 5
0 -16 5
4.70588 -16 5
9.41177 -16 5
14.1176 -16 5
18.8235 -16 5
23.5294 -16 5
28.2353 -16 5
32.9412 -16 5
37.6471 -16 5
42.3529 -16 5
47.0588 -16 5
51.7647 -16 5
56.4706 -16 5
61.1765 -16 5
65.8824 -16 5
70.5882 -16 5
75.2941 -16 5
75.2941 -9.6 5
70.5882 -9.6 5
65.8824 -9.6 5
61.1765 -9.6 5
56.4706 -9.6 5
51.7647 -9.6 5
47.0588 -9.6 5
42.3529 -9.6 5
37.6471 -9.6 5
32.9412 -9.6 5
28.2353 -9.6 5
23.5294 -9.6 5
18.8235 -9.6 5
14.1176 -9.6 5
9.41177 -9.6 5
4.70588 -9.6 5
0 -9.6 5
-4.70588 -9.6 5
-9.41177 -9.6 5
-14.1176 -9.6 5
-18.8235 -9.6 5
-23.5294 -9.6 5
-28.2353 -9.6 5
-32.9412 -9.6 5
-37.6471 -9.6 5
-42.3529 -9.6 5
-47.0588 -9.6 5
-51.7647 -9.6 5
-56.4706 -9.6 5
-61.1765 -9.6 5
-65.8824 -9.6 5
-70.5882 -9.6 5
-75.2941 -9.6 5
75.3125 3.2 5
70.625 3.2 5
65.9375 3.2 5
61.25 3.2 5
56.5625 3.2 5
51.875 3.2 5
47.1875 3.2 5
42.5 3.2 5
37.8125 3.2 5
33.125 3.2 5
28.4375 3.2 5
23.75 3.2 5
19.0625 3.2 5
14.375 3.2 5
9.6875 3.2 5
9.6875 -3.2 5
14.375 -3.2 5
19.0625 -3.2 5
23.75 -3.2 5
28.4375 -3.2 5
33.125 -3.2 5
37.8125 -3.2 5
42.5 -3.2 5
47.1875 -3.2 5
51.875 -3.2 5
56.5625 -3.2 5
61.25 -3.2 5
65.9375 -3.2 5
70.625 -3.2 5
75.3125 -3.2 5
9.6875 3.2 0
14.375 3.2 0
19.0625 3.2 0
23.75 3.2 0
28.4375 3.2 0
33.125 3.2 0
37.8125 3.2 0
42.5 3.2 0
47.1875 3.2 0
51.875 3.2 0
56.5625 3.2 0
61.25 3.2 0
65.9375 3.2 0
70.625 3.2 0
75.3125 3.2 0
75.3125 -3.2 0
70.625 -3.2 0
65.9375 -3.2 0
61.25 -3.2 0
56.5625 -3.2 0
51.875 -3.2 0
47.1875 -3.2 0
42.5 -3.2 0
37.8125 -3.2 0
33.125 -3.2 0
28.4375 -3.2 0
23.75 -3.2 0
19.0625 -3.2 0
14.375 -3.2 0
9.6875 -3.2 0
75.1852 16 5
70.3704 16 5
65.5556 16 5
60.7407 16 5
55.9259 16 5
51.1111 16 5
46.2963 16 5
41.4815 16 5
36.6667 16 5
31.8519 16 5
27.037 16 5
22.2222 16 5
17.4074 16 5
12.5926 16 5
7.77778 16 5
2.96296 16 5
-1.85185 16 5
-6.66667 16 5
-11.4815 16 5
-16.2963 16 5
-21.1111 16 5
-25.9259 16 5
-30.7407 16 5
-35.5556 16 5
-40.3704 16 5
-45.1852 16 5
-45.1852 9.6 5
-40.3704 9.6 5
-35.5556 9.6 5
-30.7407 9.6 5
-25.9259 9.6 5
-21.1111 9.6 5
-16.2963 9.6 5
-11.4815 9.6 5
-6.66667 9.6 5
-1.85185 9.6 5
2.96296 9.6 5
7.77778 9.6 5
12.5926 9.6 5
17.4074 9.6 5
22.2222 9.6 5
27.037 9.6 5
31.8519 9.6 5
36.6667 9.6 5
41.4815 9.6 5
46.2963 9.6 5
51.1111 9.6 5
55.9259 9.6 5
60.7407 9.6 5
65.5556 9.6 5
70.3704 9.6 5
75.1852 9.6 5
-45.1852 16 0
-40.3704 16 0
-35.5556 16 0
-30.7407 16 0
-25.9259 16 0
-21.1111 16 0
-16.2963 16 0
-11.4815 16 0
-6.66667 16 0
-1.85185 16 0
2.96296 16 0
7.77778 16 0
12.5926 16 0
17.4074 16 0
22.2222 16 0
27.037 16 0
31.8519 16 0
36.6667 16 0
41.4815 16 0
46.2963 16 0
51.1111 16 0
55.9259 16 0
60.7407 16 0
65.5556 16 0
70.3704 16 0
75.1852 16 0
75.1852 9.6 0
70.3704 9.6 0
65.5556 9.6 0
60.7407 9.6 0
55.9259 9.6 0
51.1111 9.6 0
46.2963 9.6 0
41.4815 9.6 0
36.6667 9.6 0
31.8519 9.6 0
27.037 9.6 0
22.2222 9.6 0
17.4074 9.6 0
12.5926 9.6 0
7.77778 9.6 0
2.96296 9.6 0
-1.85185 9.6 0
-6.66667 9.6 0
-11.4815 9.6 0
-16.2963 9.6 0
-21.1111 9.6 0
-25.9259 9.6 0
-30.7407 9.6 0
-35.5556 9.6 0
-40.3704 9.6 0
-45.1852 9.6 0
CELLS 170 1530
8 7 4 48 49 0 1 40 45
8 49 48 47 50 45 40 41 44
8 50 47 46 51 44 41 42 43
8 51 46 5 6 43 42 2 3
8 2 3 57 58 5 6 52 55
8 58 57 56 59 55 52 53 54
8 59 56 10 11 54 53 8 9
8 19 16 17 18 12 13 14 15
8 18 17 107 108 15 14 60 91
8 108 107 106 109 91 60 61 90
8 109 106 105 110 90 61 62 89
8 110 105 104 111 89 62 63 88
8 111 104 103 112 88 63 64 87
8 112 103 102 113 87 64 65 86
8 113 102 101 114 86 65 66 85
8 114 101 100 115 85 66 67 84
8 115 100 99 116 84 67 68 83
8 116 99 98 117 83 68 69 82
8 117 98 97 118 82 69 70 81
8 118 97 96 119 81 70 71 80
8 119 96 95 120 80 71 72 79
8 120 95 94 121 79 72 73 78
8 121 94 93 122 78 73 74 77
8 122 93 92 123 77 74 75 76
8 123 92 22 23 76 75 20 21
8 189 223 222 124 24 25 26 27
8 188 224 221 125 189 223 222 124
8 187 225 220 126 188 224 221 125
8 186 226 219 127 187 225 220 126
8 185 227 218 128 186 226 219 127
8 184 228 217 129 185 227 218 128
8 183 229 216 130 184 228 217 129
8 182 230 215 131 183 229 216 130
8 181 231 214 132 182 230 215 131
8 180 232 213 133 181 231 214 132
8 179 233 212 134 180 232 213 133
8 178 234 211 135 179 233 212 134
8 177 235 210 136 178 234 211 135
8 176 236 209 137 177 235 210 136
8 175 237 208 138 176 236 209 137
8 174 238 207 139 175 237 208 138
8 173 239 206 140 174 238 207 139
8 172 240 205 141 173 239 206 140
8 171 241 204 142 172 240 205 141
8 170 242 203 143 171 241 204 142
8 169 243 202 144 170 242 203 143
8 168 244 201 145 169 243 202 144
8 167 245 200 146 168 244 201 145
8 166 246 199 147 167 245 200 146
8 165 247 198 148 166 246 199 147
8 164 248 197 149 165 247 198 148
8 163 249 196 150 164 248 197 149
8 162 250 195 151 163 249 196 150
8 161 251 194 152 162 250 195 151
8 160 252 193 153 161 251 194 152
8 159 253 192 154 160 252 193 153
8 158 254 191 155 159 253 192 154
8 157 255 190 156 158 254 191 155
8 31 28 29 30 157 255 190 156
8 285 301 300 256 32 33 34 35
8 284 302 299 257 285 301 300 256
8 283 303 298 258 284 302 299 257
8 282 304 297 259 283 303 298 258
8 281 305 296 260 282 304 297 259
8 280 306 295 261 281 305 296 260
8 279 307 294 262 280 306 295 261
8 278 308 293 263 279 307 294 262
8 277 309 292 264 278 308 293 263
8 276 310 291 265 277 309 292 264
8 275 311 290 266 276 310 291 265
8 274 312 289 267 275 311 290 266
8 273 313 288 268 274 312 289 267
8 272 314 287 269 273 313 288 268
8 271 315 286 270 272 314 287 269
8 12 19 16 13 271 315 286 270
8 157 255 76 123 31 28 21 23
8 158 254 77 122 157 255 76 123
8 159 253 78 121 158 254 77 122
8 160 252 79 120 159 253 78 121
8 161 251 80 119 160 252 79 120
8 162 250 81 118 161 251 80 119
8 163 249 82 117 162 250 81 118
8 164 248 83 116 163 249 82 117
8 165 247 84 115 164 248 83 116
8 166 246 85 114 165 247 84 115
8 167 245 86 113 166 246 85 114
8 168 244 87 112 167 245 86 113
8 169 243 88 111 168 244 87 112
8 170 242 89 110 169 243 88 111
8 171 241 90 109 170 242 89 110
8 172 240 91 108 171 241 90 109
8 173 239 15 18 172 240 91 108
8 174 238 12 19 173 239 15 18
8 175 237 271 315 174 238 12 19
8 176 236 272 314 175 237 271 315
8 177 235 273 313 176 236 272 314
8 178 234 274 312 177 235 273 313
8 179 233 275 311 178 234 274 312
8 180 232 276 310 179 233 275 311
8 181 231 277 309 180 232 276 310
8 182 230 278 308 181 231 277 309
8 183 229 279 307 182 230 278 308
8 184 228 280 306 183 229 279 307
8 185 227 281 305 184 228 280 306
8 186 226 282 304 185 227 281 305
8 187 225 283 303 186 226 282 304
8 188 224 284 302 187 225 283 303
8 189 223 285 301 188 224 284 302
8 24 25 32 33 189 223 285 301
8 367 394 393 316 36 37 38 39
8 366 395 392 317 367 394 393 316
8 365 396 391 318 366 395 392 317
8 364 397 390 319 365 396 391 318
8 363 398 389 320 364 397 390 319
8 362 399 388 321 363 398 389 320
8 361 400 387 322 362 399 388 321
8 360 401 386 323 361 400 387 322
8 359 402 385 324 360 401 386 323
8 358 403 384 325 359 402 385 324
8 357 404 383 326 358 403 384 325
8 356 405 382 327 357 404 383 326
8 355 406 381 328 356 405 382 327
8 354 407 380 329 355 406 381 328
8 353 408 379 330 354 407 380 329
8 352 409 378 331 353 408 379 330
8 351 410 377 332 352 409 378 331
8 350 411 376 333 351 410 377 332
8 349 412 375 334 350 411 376 333
8 348 413 374 335 349 412 375 334
8 347 414 373 336 348 413 374 335
8 346 415 372 337 347 414 373 336
8 345 416 371 338 346 415 372 337
8 344 417 370 339 345 416 371 338
8 343 418 369 340 344 417 370 339
8 342 419 368 341 343 418 369 340
8 0 7 4 1 342 419 368 341
8 37 36 367 394 34 35 256 300
8 394 367 366 395 300 256 257 299
8 395 366 365 396 299 257 258 298
8 396 365 364 397 298 258 259 297
8 397 364 363 398 297 259 260 296
8 398 363 362 399 296 260 261 295
8 399 362 361 400 295 261 262 294
8 400 361 360 401 294 262 263 293
8 401 360 359 402 293 263 264 292
8 402 359 358 403 292 264 265 291
8 403 358 357 404 291 265 266 290
8 404 357 356 405 290 266 267 289
8 405 356 355 406 289 267 268 288
8 406 355 354 407 288 268 269 287
8 407 354 353 408 287 269 270 286
8 408 353 352 409 286 270 13 16
8 409 352 351 410 16 13 14 17
8 410 351 350 411 17 14 60 107
8 411 350 349 412 107 60 61 106
8 412 349 348 413 106 61 62 105
8 413 348 347 414 105 62 63 104
8 414 347 346 415 104 63 64 103
8 415 346 345 416 103 64 65 102
8 416 345 344 417 102 65 66 101
8 417 344 343 418 101 66 67 100
8 418 343 342 419 100 67 68 99
8 419 342 0 7 99 68 69 98
8 7 0 45 49 98 69 70 97
8 49 45 44 50 97 70 71 96
8 50 44 43 51 96 71 72 95
8 51 43 3 6 95 72 73 94
8 6 3 57 52 94 73 74 93
8 52 57 56 53 93 74 75 92
8 53 56 10 8 92 75 20 22
CELL_TYPES 170
12
12
12
12
12
12
12
12
12
12
12
12
12
12
12
12
12
12
12
12
12
12
12
12
12
12
12
12
12
12
12
12
12
12
12
12
12
12
12
12
12
12
12
12
12
12
12
12
12
12
12
12
12
12
12
12
12
12
12
12
12
12
12
12
12
12
12
12
12
12
12
12
12
12
12
12
12
12
12
12
12
12
12
12
12
12
12
12
12
12
12
12
12
12
12
12
12
12
12
12
12
12
12
12
12
12
12
12
12
12
12
12
12
12
12
12
12
12
12
12
12
12
12
12
12
12
12
12
12
12
12
12
12
12
12
12
12
12
12
12
12
12
12
12
12
12
12
12
12
12
12
12
12
12
12
12
12
12
12
12
12
12
12
12
12
12
12
12
12
12
CELL_DATA 170
SCALARS von_mises float 1
LOOKUP_TABLE default
0.410873
0.531286
0.507528
0.392895
0.275706
0.175693
0.0830533
0.00851811
0.0150845
0.0747273
0.0219461
0.00586796
0.00616601
0.0113126
0.0113937
0.0623275
0.157916
0.301917
0.437702
0.544284
0.531416
0.393948
0.274586
0.242914
0.172301
0.0639285
0.0459018
0.0448227
0.0347133
0.0228738
0.0249794
0.0161316
0.0187994
0.0156986
0.0156096
0.0170549
0.0142299
0.0187401
0.0196598
0.0480625
0.0623292
0.0439219
0.0714592
0.0446395
0.0108199
0.0175351
0.0103981
0.0176663
0.0204398
0.0231068
0.0438144
0.0492066
0.0451233
0.108691
0.0770315
0.0485976
0.033304
0.047198
0.0672645
0.0611427
0.0403283
0.0450911
0.0227855
0.0135703
0.00910592
0.00722912
0.00635331
0.00609599
0.00568159
0.00524159
0.00741105
0.00840337
0.0162837
0.0810287
0.0379575
0.116411
0.170512
0.165778
0.11635
0.113871
0.141603
0.0836059
0.138943
0.120658
0.0615529
0.00580549
0.0166054
0.00914291
0.0219626
0.0323836
0.0932776
0.0803876
0.155508
0.068247
0.0730434
0.0199303
0.0128447
0.0173331
0.00968452
0.0154996
0.0105012
0.0146514
0.0138062
0.0134474
0.023718
0.022883
0.0358932
0.040073
0.0347093
0.0733619
0.117709
0.144977
0.139308
0.162208
0.149667
0.162195
0.153403
0.159167
0.155987
0.156753
0.160645
0.15707
0.1667
0.13772
0.106575
0.100126
0.0978041
0.128252
0.145078
0.142963
0.146246
0.1435
0.139084
0.123623
0.18654
0.295427
0.104105
0.110871
0.150785
0.14513
0.159124
0.152744
0.160313
0.156282
0.158429
0.158991
0.156877
0.163124
0.155425
0.148865
0.09305
0.0986417
0.0558577
0.104797
0.0732138
0.123827
0.126957
0.13649
0.131821
0.124841
0.129051
0.140472
0.372705
0.814228
0.945081
0.898857
0.763937
0.209064
0.198391
0.134401
